11
Properties=species:S:1:pos:R:3 charge=1 charge_a=1 charge_b=0 selection_a=1-4 selection_b=5-11 scaling=0.8 benchmark_Eint=-13.295 benchmark_unit=kcal/mol group=OHk-O pbc="F F F"
O       -1.52148338      -1.71648841       0.49504366
H       -1.06236360      -2.44733384       0.94252318
H       -0.92621988      -0.83620954       0.37159083
H       -1.94644171      -2.02701092      -0.32236139
H        0.35254692       1.66532979       1.44411322
H       -0.65085176       2.13458392       0.02174944
H       -1.41343164       1.33125062       1.43730789
C       -0.51699496       1.43601214       0.83936605
O       -0.29635845       0.08018659       0.23660115
C        0.74520262      -0.05624312      -0.54140279
N        1.64605112      -0.23334083      -1.23395972
11
Properties=species:S:1:pos:R:3 charge=1 charge_a=1 charge_b=0 selection_a=1-4 selection_b=5-11 scaling=0.85 benchmark_Eint=-18.082 benchmark_unit=kcal/mol group=OHk-O pbc="F F F"
O       -1.52148338      -1.71648841       0.49504366
H       -1.06236360      -2.44733384       0.94252318
H       -0.92621988      -0.83620954       0.37159083
H       -1.94644171      -2.02701092      -0.32236139
H        0.39191326       1.72260455       1.43567637
H       -0.61148542       2.19185868       0.01331259
H       -1.37406530       1.38852538       1.42887103
C       -0.47762862       1.49328690       0.83092919
O       -0.25699211       0.13746135       0.22816430
C        0.78456896       0.00103163      -0.54983964
N        1.68541746      -0.17606607      -1.24239657
11
Properties=species:S:1:pos:R:3 charge=1 charge_a=1 charge_b=0 selection_a=1-4 selection_b=5-11 scaling=0.9 benchmark_Eint=-20.798 benchmark_unit=kcal/mol group=OHk-O pbc="F F F"
O       -1.52148338      -1.71648841       0.49504366
H       -1.06236360      -2.44733384       0.94252318
H       -0.92621988      -0.83620954       0.37159083
H       -1.94644171      -2.02701092      -0.32236139
H        0.43127960       1.77987931       1.42723951
H       -0.57211908       2.24913343       0.00487573
H       -1.33469896       1.44580014       1.42043418
C       -0.43826228       1.55056166       0.82249234
O       -0.21762577       0.19473611       0.21972744
C        0.82393529       0.05830639      -0.55827650
N        1.72478380      -0.11879131      -1.25083343
11
Properties=species:S:1:pos:R:3 charge=1 charge_a=1 charge_b=0 selection_a=1-4 selection_b=5-11 scaling=0.95 benchmark_Eint=-22.093 benchmark_unit=kcal/mol group=OHk-O pbc="F F F"
O       -1.52148338      -1.71648841       0.49504366
H       -1.06236360      -2.44733384       0.94252318
H       -0.92621988      -0.83620954       0.37159083
H       -1.94644171      -2.02701092      -0.32236139
H        0.47064594       1.83715406       1.41880266
H       -0.53275274       2.30640819      -0.00356112
H       -1.29533262       1.50307490       1.41199732
C       -0.39889594       1.60783642       0.81405548
O       -0.17825943       0.25201087       0.21129059
C        0.86330163       0.11558115      -0.56671335
N        1.76415013      -0.06151655      -1.25927028
11
Properties=species:S:1:pos:R:3 charge=1 charge_a=1 charge_b=0 selection_a=1-4 selection_b=5-11 scaling=1.0 benchmark_Eint=-22.418 benchmark_unit=kcal/mol group=OHk-O pbc="F F F"
O       -1.52148338      -1.71648841       0.49504366
H       -1.06236360      -2.44733384       0.94252318
H       -0.92621988      -0.83620954       0.37159083
H       -1.94644171      -2.02701092      -0.32236139
H        0.51001228       1.89442882       1.41036580
H       -0.49338640       2.36368295      -0.01199798
H       -1.25596628       1.56034966       1.40356047
C       -0.35952960       1.66511118       0.80561863
O       -0.13889309       0.30928563       0.20285373
C        0.90266797       0.17285591      -0.57515021
N        1.80351647      -0.00424179      -1.26770714
11
Properties=species:S:1:pos:R:3 charge=1 charge_a=1 charge_b=0 selection_a=1-4 selection_b=5-11 scaling=1.05 benchmark_Eint=-22.089 benchmark_unit=kcal/mol group=OHk-O pbc="F F F"
O       -1.52148338      -1.71648841       0.49504366
H       -1.06236360      -2.44733384       0.94252318
H       -0.92621988      -0.83620954       0.37159083
H       -1.94644171      -2.02701092      -0.32236139
H        0.54937862       1.95170358       1.40192895
H       -0.45402006       2.42095771      -0.02043483
H       -1.21659994       1.61762442       1.39512361
C       -0.32016326       1.72238593       0.79718177
O       -0.09952675       0.36656039       0.19441688
C        0.94203431       0.23013067      -0.58358706
N        1.84288281       0.05303296      -1.27614399
11
Properties=species:S:1:pos:R:3 charge=1 charge_a=1 charge_b=0 selection_a=1-4 selection_b=5-11 scaling=1.1 benchmark_Eint=-21.331 benchmark_unit=kcal/mol group=OHk-O pbc="F F F"
O       -1.52148338      -1.71648841       0.49504366
H       -1.06236360      -2.44733384       0.94252318
H       -0.92621988      -0.83620954       0.37159083
H       -1.94644171      -2.02701092      -0.32236139
H        0.58874496       2.00897834       1.39349209
H       -0.41465372       2.47823247      -0.02887169
H       -1.17723360       1.67489918       1.38668676
C       -0.28079692       1.77966069       0.78874492
O       -0.06016042       0.42383515       0.18598002
C        0.98140065       0.28740543      -0.59202392
N        1.88224915       0.11030772      -1.28458085
11
Properties=species:S:1:pos:R:3 charge=1 charge_a=1 charge_b=0 selection_a=1-4 selection_b=5-11 scaling=1.25 benchmark_Eint=-17.862 benchmark_unit=kcal/mol group=OHk-O pbc="F F F"
O       -1.52148338      -1.71648841       0.49504366
H       -1.06236360      -2.44733384       0.94252318
H       -0.92621988      -0.83620954       0.37159083
H       -1.94644171      -2.02701092      -0.32236139
H        0.70684397       2.18080262       1.36818153
H       -0.29655470       2.65005674      -0.05418225
H       -1.05913459       1.84672345       1.36137619
C       -0.16269791       1.95148497       0.76343435
O        0.05793860       0.59565942       0.16066946
C        1.09949967       0.45922970      -0.61733448
N        2.00034817       0.28213200      -1.30989141
11
Properties=species:S:1:pos:R:3 charge=1 charge_a=1 charge_b=0 selection_a=1-4 selection_b=5-11 scaling=1.5 benchmark_Eint=-11.926 benchmark_unit=kcal/mol group=OHk-O pbc="F F F"
O       -1.52148338      -1.71648841       0.49504366
H       -1.06236360      -2.44733384       0.94252318
H       -0.92621988      -0.83620954       0.37159083
H       -1.94644171      -2.02701092      -0.32236139
H        0.90367567       2.46717641       1.32599725
H       -0.09972301       2.93643054      -0.09636653
H       -0.86230289       2.13309725       1.31919192
C        0.03413379       2.23785876       0.72125008
O        0.25477030       0.88203322       0.11848518
C        1.29633137       0.74560350      -0.65951876
N        2.19717987       0.56850579      -1.35207569
11
Properties=species:S:1:pos:R:3 charge=1 charge_a=1 charge_b=0 selection_a=1-4 selection_b=5-11 scaling=2.0 benchmark_Eint=-5.124 benchmark_unit=kcal/mol group=OHk-O pbc="F F F"
O       -1.52148338      -1.71648841       0.49504366
H       -1.06236360      -2.44733384       0.94252318
H       -0.92621988      -0.83620954       0.37159083
H       -1.94644171      -2.02701092      -0.32236139
H        1.29733907       3.03992400       1.24162870
H        0.29394039       3.50917813      -0.18073508
H       -0.46863949       2.70584483       1.23482337
C        0.42779719       2.81060635       0.63688153
O        0.64843370       1.45478080       0.03411663
C        1.68999477       1.31835108      -0.74388731
N        2.59084327       1.14125338      -1.43644424
12
Properties=species:S:1:pos:R:3 charge=1 charge_a=1 charge_b=0 selection_a=1-5 selection_b=6-12 scaling=0.8 benchmark_Eint=-17.878 benchmark_unit=kcal/mol group=NHk-O pbc="F F F"
N       -0.00515672       0.02740150       2.66964473
H       -0.00301930       0.05751351       1.59414937
H        0.82294402       0.49041113       3.04097654
H       -0.00367719      -0.94602589       2.97282307
H       -0.83684284       0.48677607       3.03747083
H        0.87641959       0.19588381      -2.57826054
H       -0.86604935       0.19803894      -2.58152100
H        0.00223948      -1.24161665      -1.96202914
H        0.00335734       1.57066901      -0.65493544
C        0.00370440      -0.15797400      -2.02243910
C        0.00195978       0.47002116      -0.68518038
O       -0.00090098      -0.15974119       0.36157924
12
Properties=species:S:1:pos:R:3 charge=1 charge_a=1 charge_b=0 selection_a=1-5 selection_b=6-12 scaling=0.85 benchmark_Eint=-22.021 benchmark_unit=kcal/mol group=NHk-O pbc="F F F"
N       -0.00515672       0.02740150       2.66964473
H       -0.00301930       0.05751351       1.59414937
H        0.82294402       0.49041113       3.04097654
H       -0.00367719      -0.94602589       2.97282307
H       -0.83684284       0.48677607       3.03747083
H        0.87655199       0.18230539      -2.65529617
H       -0.86591695       0.18446052      -2.65855663
H        0.00237187      -1.25519507      -2.03906477
H        0.00348974       1.55709059      -0.73197107
C        0.00383680      -0.17155242      -2.09947473
C        0.00209217       0.45644274      -0.76221601
O       -0.00076859      -0.17331961       0.28454361
12
Properties=species:S:1:pos:R:3 charge=1 charge_a=1 charge_b=0 selection_a=1-5 selection_b=6-12 scaling=0.9 benchmark_Eint=-24.486 benchmark_unit=kcal/mol group=NHk-O pbc="F F F"
N       -0.00515672       0.02740150       2.66964473
H       -0.00301930       0.05751351       1.59414937
H        0.82294402       0.49041113       3.04097654
H       -0.00367719      -0.94602589       2.97282307
H       -0.83684284       0.48677607       3.03747083
H        0.87668438       0.16872697      -2.73233180
H       -0.86578456       0.17088210      -2.73559227
H        0.00250427      -1.26877349      -2.11610041
H        0.00362213       1.54351217      -0.80900670
C        0.00396919      -0.18513084      -2.17651037
C        0.00222457       0.44286432      -0.83925165
O       -0.00063619      -0.18689803       0.20750798
12
Properties=species:S:1:pos:R:3 charge=1 charge_a=1 charge_b=0 selection_a=1-5 selection_b=6-12 scaling=0.95 benchmark_Eint=-25.765 benchmark_unit=kcal/mol group=NHk-O pbc="F F F"
N       -0.00515672       0.02740150       2.66964473
H       -0.00301930       0.05751351       1.59414937
H        0.82294402       0.49041113       3.04097654
H       -0.00367719      -0.94602589       2.97282307
H       -0.83684284       0.48677607       3.03747083
H        0.87681678       0.15514855      -2.80936744
H       -0.86565216       0.15730368      -2.81262790
H        0.00263666      -1.28235191      -2.19313604
H        0.00375453       1.52993376      -0.88604233
C        0.00410158      -0.19870926      -2.25354600
C        0.00235696       0.42928590      -0.91628728
O       -0.00050380      -0.20047645       0.13047234
12
Properties=species:S:1:pos:R:3 charge=1 charge_a=1 charge_b=0 selection_a=1-5 selection_b=6-12 scaling=1.0 benchmark_Eint=-26.207 benchmark_unit=kcal/mol group=NHk-O pbc="F F F"
N       -0.00515672       0.02740150       2.66964473
H       -0.00301930       0.05751351       1.59414937
H        0.82294402       0.49041113       3.04097654
H       -0.00367719      -0.94602589       2.97282307
H       -0.83684284       0.48677607       3.03747083
H        0.87694917       0.14157014      -2.88640307
H       -0.86551977       0.14372526      -2.88966353
H        0.00276906      -1.29593033      -2.27017167
H        0.00388692       1.51635534      -0.96307797
C        0.00423398      -0.21228768      -2.33058163
C        0.00248935       0.41570748      -0.99332291
O       -0.00037140      -0.21405487       0.05343671
12
Properties=species:S:1:pos:R:3 charge=1 charge_a=1 charge_b=0 selection_a=1-5 selection_b=6-12 scaling=1.05 benchmark_Eint=-26.067 benchmark_unit=kcal/mol group=NHk-O pbc="F F F"
N       -0.00515672       0.02740150       2.66964473
H       -0.00301930       0.05751351       1.59414937
H        0.82294402       0.49041113       3.04097654
H       -0.00367719      -0.94602589       2.97282307
H       -0.83684284       0.48677607       3.03747083
H        0.87708157       0.12799172      -2.96343870
H       -0.86538737       0.13014685      -2.96669916
H        0.00290145      -1.30950875      -2.34720731
H        0.00401932       1.50277692      -1.04011360
C        0.00436637      -0.22586610      -2.40761726
C        0.00262175       0.40212906      -1.07035854
O       -0.00023901      -0.22763328      -0.02359892
12
Properties=species:S:1:pos:R:3 charge=1 charge_a=1 charge_b=0 selection_a=1-5 selection_b=6-12 scaling=1.1 benchmark_Eint=-25.533 benchmark_unit=kcal/mol group=NHk-O pbc="F F F"
N       -0.00515672       0.02740150       2.66964473
H       -0.00301930       0.05751351       1.59414937
H        0.82294402       0.49041113       3.04097654
H       -0.00367719      -0.94602589       2.97282307
H       -0.83684284       0.48677607       3.03747083
H        0.87721396       0.11441330      -3.04047434
H       -0.86525498       0.11656843      -3.04373480
H        0.00303384      -1.32308716      -2.42424294
H        0.00415171       1.48919850      -1.11714923
C        0.00449877      -0.23944452      -2.48465290
C        0.00275414       0.38855064      -1.14739418
O       -0.00010661      -0.24121170      -0.10063455
12
Properties=species:S:1:pos:R:3 charge=1 charge_a=1 charge_b=0 selection_a=1-5 selection_b=6-12 scaling=1.25 benchmark_Eint=-22.742 benchmark_unit=kcal/mol group=NHk-O pbc="F F F"
N       -0.00515672       0.02740150       2.66964473
H       -0.00301930       0.05751351       1.59414937
H        0.82294402       0.49041113       3.04097654
H       -0.00367719      -0.94602589       2.97282307
H       -0.83684284       0.48677607       3.03747083
H        0.87761115       0.07367804      -3.27158124
H       -0.86485780       0.07583317      -3.27484170
H        0.00343103      -1.36382242      -2.65534984
H        0.00454889       1.44846324      -1.34825613
C        0.00489595      -0.28017977      -2.71575980
C        0.00315133       0.34781538      -1.37850108
O        0.00029057      -0.28194696      -0.33174145
12
Properties=species:S:1:pos:R:3 charge=1 charge_a=1 charge_b=0 selection_a=1-5 selection_b=6-12 scaling=1.5 benchmark_Eint=-17.5 benchmark_unit=kcal/mol group=NHk-O pbc="F F F"
N       -0.00515672       0.02740150       2.66964473
H       -0.00301930       0.05751351       1.59414937
H        0.82294402       0.49041113       3.04097654
H       -0.00367719      -0.94602589       2.97282307
H       -0.83684284       0.48677607       3.03747083
H        0.87827312       0.00578594      -3.65675940
H       -0.86419582       0.00794107      -3.66001986
H        0.00409300      -1.43171452      -3.04052800
H        0.00521087       1.38057115      -1.73343430
C        0.00555793      -0.34807187      -3.10093796
C        0.00381330       0.27992329      -1.76367924
O        0.00095254      -0.34983906      -0.71691962
12
Properties=species:S:1:pos:R:3 charge=1 charge_a=1 charge_b=0 selection_a=1-5 selection_b=6-12 scaling=2.0 benchmark_Eint=-10.518 benchmark_unit=kcal/mol group=NHk-O pbc="F F F"
N       -0.00515672       0.02740150       2.66964473
H       -0.00301930       0.05751351       1.59414937
H        0.82294402       0.49041113       3.04097654
H       -0.00367719      -0.94602589       2.97282307
H       -0.83684284       0.48677607       3.03747083
H        0.87959707      -0.12999825      -4.42711573
H       -0.86287187      -0.12784312      -4.43037619
H        0.00541695      -1.56749871      -3.81088433
H        0.00653482       1.24478696      -2.50379063
C        0.00688187      -0.48385606      -3.87129429
C        0.00513725       0.14413910      -2.53403557
O        0.00227649      -0.48562325      -1.48727595
17
Properties=species:S:1:pos:R:3 charge=1 charge_a=1 charge_b=0 selection_a=1-5 selection_b=6-17 scaling=0.8 benchmark_Eint=-28.052 benchmark_unit=kcal/mol group=NHk-O pbc="F F F"
N       -2.04112350       1.32828550      -2.08903075
H       -1.45992438       2.15676870      -2.19841210
H       -2.15252933       0.87822933      -2.99539926
H       -2.95753199       1.60805350      -1.74493015
H       -1.56814096       0.63523838      -1.37995562
H        2.60546765       0.62830626       0.12521827
H        1.73990966       1.41609771       1.47161490
H        2.21753006       2.36821468       0.03967227
H       -1.14020602      -1.81076951       1.50862966
H       -0.27496539      -2.59864960       0.16226462
H        0.46922087      -2.53727017       1.78633204
O        0.62411933       1.16059376      -0.27810464
C       -0.03841978       0.04644929      -0.05201290
O       -1.11042521      -0.16259131      -0.61880263
O        0.52315197      -0.77677882       0.79077941
C       -0.16781051      -2.02479510       1.07704810
C        1.89217364       1.39945112       0.39734694
17
Properties=species:S:1:pos:R:3 charge=1 charge_a=1 charge_b=0 selection_a=1-5 selection_b=6-17 scaling=0.85 benchmark_Eint=-32.554 benchmark_unit=kcal/mol group=NHk-O pbc="F F F"
N       -2.04112350       1.32828550      -2.08903075
H       -1.45992438       2.15676870      -2.19841210
H       -2.15252933       0.87822933      -2.99539926
H       -2.95753199       1.60805350      -1.74493015
H       -1.56814096       0.63523838      -1.37995562
H        2.63407488       0.57844190       0.17279033
H        1.76851690       1.36623335       1.51918696
H        2.24613729       2.31835032       0.08724433
H       -1.11159878      -1.86063386       1.55620172
H       -0.24635815      -2.64851396       0.20983668
H        0.49782810      -2.58713453       1.83390410
O        0.65272656       1.11072940      -0.23053258
C       -0.00981255      -0.00341507      -0.00444084
O       -1.08181797      -0.21245566      -0.57123057
O        0.55175920      -0.82664318       0.83835148
C       -0.13920328      -2.07465945       1.12462016
C        1.92078088       1.34958677       0.44491900
17
Properties=species:S:1:pos:R:3 charge=1 charge_a=1 charge_b=0 selection_a=1-5 selection_b=6-17 scaling=0.9 benchmark_Eint=-35.217 benchmark_unit=kcal/mol group=NHk-O pbc="F F F"
N       -2.04112350       1.32828550      -2.08903075
H       -1.45992438       2.15676870      -2.19841210
H       -2.15252933       0.87822933      -2.99539926
H       -2.95753199       1.60805350      -1.74493015
H       -1.56814096       0.63523838      -1.37995562
H        2.66268212       0.52857755       0.22036239
H        1.79712413       1.31636900       1.56675902
H        2.27474453       2.26848596       0.13481639
H       -1.08299155      -1.91049822       1.60377378
H       -0.21775092      -2.69837832       0.25740874
H        0.52643533      -2.63699889       1.88147616
O        0.68133379       1.06086504      -0.18296052
C        0.01879468      -0.05327942       0.04313122
O       -1.05321074      -0.26232002      -0.52365851
O        0.58036644      -0.87650753       0.88592354
C       -0.11059604      -2.12452381       1.17219223
C        1.94938811       1.29972241       0.49249106
17
Properties=species:S:1:pos:R:3 charge=1 charge_a=1 charge_b=0 selection_a=1-5 selection_b=6-17 scaling=0.95 benchmark_Eint=-36.576 benchmark_unit=kcal/mol group=NHk-O pbc="F F F"
N       -2.04112350       1.32828550      -2.08903075
H       -1.45992438       2.15676870      -2.19841210
H       -2.15252933       0.87822933      -2.99539926
H       -2.95753199       1.60805350      -1.74493015
H       -1.56814096       0.63523838      -1.37995562
H        2.69128935       0.47871319       0.26793445
H        1.82573136       1.26650464       1.61433108
H        2.30335176       2.21862161       0.18238845
H       -1.05438431      -1.96036257       1.65134585
H       -0.18914368      -2.74824267       0.30498080
H        0.55504257      -2.68686324       1.92904822
O        0.70994103       1.01100069      -0.13538845
C        0.04740192      -0.10314378       0.09070328
O       -1.02460350      -0.31218438      -0.47608644
O        0.60897367      -0.92637189       0.93349560
C       -0.08198881      -2.17438817       1.21976429
C        1.97799535       1.24985806       0.54006312
17
Properties=species:S:1:pos:R:3 charge=1 charge_a=1 charge_b=0 selection_a=1-5 selection_b=6-17 scaling=1.0 benchmark_Eint=-37.009 benchmark_unit=kcal/mol group=NHk-O pbc="F F F"
N       -2.04112350       1.32828550      -2.08903075
H       -1.45992438       2.15676870      -2.19841210
H       -2.15252933       0.87822933      -2.99539926
H       -2.95753199       1.60805350      -1.74493015
H       -1.56814096       0.63523838      -1.37995562
H        2.71989659       0.42884884       0.31550652
H        1.85433860       1.21664028       1.66190314
H        2.33195900       2.16875725       0.22996051
H       -1.02577708      -2.01022693       1.69891791
H       -0.16053645      -2.79810703       0.35255287
H        0.58364980      -2.73672760       1.97662028
O        0.73854826       0.96113633      -0.08781639
C        0.07600915      -0.15300813       0.13827535
O       -0.99599627      -0.36204873      -0.42851438
O        0.63758091      -0.97623625       0.98106766
C       -0.05338157      -2.22425252       1.26733635
C        2.00660258       1.19999370       0.58763519
17
Properties=species:S:1:pos:R:3 charge=1 charge_a=1 charge_b=0 selection_a=1-5 selection_b=6-17 scaling=1.05 benchmark_Eint=-36.788 benchmark_unit=kcal/mol group=NHk-O pbc="F F F"
N       -2.04112350       1.32828550      -2.08903075
H       -1.45992438       2.15676870      -2.19841210
H       -2.15252933       0.87822933      -2.99539926
H       -2.95753199       1.60805350      -1.74493015
H       -1.56814096       0.63523838      -1.37995562
H        2.74850382       0.37898448       0.36307858
H        1.88294583       1.16677593       1.70947521
H        2.36056623       2.11889290       0.27753258
H       -0.99716984      -2.06009129       1.74648997
H       -0.13192921      -2.84797138       0.40012493
H        0.61225704      -2.78659195       2.02419235
O        0.76715550       0.91127198      -0.04024433
C        0.10461639      -0.20287249       0.18584741
O       -0.96738903      -0.41191309      -0.38094232
O        0.66618814      -1.02610060       1.02863972
C       -0.02477434      -2.27411688       1.31490841
C        2.03520982       1.15012934       0.63520725
17
Properties=species:S:1:pos:R:3 charge=1 charge_a=1 charge_b=0 selection_a=1-5 selection_b=6-17 scaling=1.1 benchmark_Eint=-36.116 benchmark_unit=kcal/mol group=NHk-O pbc="F F F"
N       -2.04112350       1.32828550      -2.08903075
H       -1.45992438       2.15676870      -2.19841210
H       -2.15252933       0.87822933      -2.99539926
H       -2.95753199       1.60805350      -1.74493015
H       -1.56814096       0.63523838      -1.37995562
H        2.77711106       0.32912012       0.41065064
H        1.91155307       1.11691157       1.75704727
H        2.38917347       2.06902854       0.32510464
H       -0.96856261      -2.10995564       1.79406203
H       -0.10332198      -2.89783574       0.44769699
H        0.64086427      -2.83645631       2.07176441
O        0.79576273       0.86140762       0.00732773
C        0.13322363      -0.25273684       0.23341947
O       -0.93878180      -0.46177744      -0.33337026
O        0.69479538      -1.07596496       1.07621179
C        0.00383290      -2.32398123       1.36248047
C        2.06381705       1.10026499       0.68277931
17
Properties=species:S:1:pos:R:3 charge=1 charge_a=1 charge_b=0 selection_a=1-5 selection_b=6-17 scaling=1.25 benchmark_Eint=-32.678 benchmark_unit=kcal/mol group=NHk-O pbc="F F F"
N       -2.04112350       1.32828550      -2.08903075
H       -1.45992438       2.15676870      -2.19841210
H       -2.15252933       0.87822933      -2.99539926
H       -2.95753199       1.60805350      -1.74493015
H       -1.56814096       0.63523838      -1.37995562
H        2.86293276       0.17952706       0.55336683
H        1.99737477       0.96731851       1.89976345
H        2.47499517       1.91943547       0.46782082
H       -0.88274091      -2.25954871       1.93677822
H       -0.01750027      -3.04742881       0.59041318
H        0.72668598      -2.98604938       2.21448059
O        0.88158444       0.71181455       0.15004392
C        0.21904533      -0.40232991       0.37613566
O       -0.85296009      -0.61137051      -0.19065407
O        0.78061708      -1.22555802       1.21892797
C        0.08965460      -2.47357430       1.50519666
C        2.14963876       0.95067192       0.82549550
17
Properties=species:S:1:pos:R:3 charge=1 charge_a=1 charge_b=0 selection_a=1-5 selection_b=6-17 scaling=1.5 benchmark_Eint=-26.023 benchmark_unit=kcal/mol group=NHk-O pbc="F F F"
N       -2.04112350       1.32828550      -2.08903075
H       -1.45992438       2.15676870      -2.19841210
H       -2.15252933       0.87822933      -2.99539926
H       -2.95753199       1.60805350      -1.74493015
H       -1.56814096       0.63523838      -1.37995562
H        3.00596893      -0.06979472       0.79122713
H        2.14041095       0.71799673       2.13762376
H        2.61803135       1.67011369       0.70568113
H       -0.73970473      -2.50887049       2.17463853
H        0.12553590      -3.29675059       0.82827348
H        0.86972215      -3.23537116       2.45234090
O        1.02462061       0.46249277       0.38790423
C        0.36208150      -0.65165169       0.61399597
O       -0.70992392      -0.86069229       0.04720624
O        0.92365326      -1.47487980       1.45678828
C        0.23269078      -2.72289608       1.74305697
C        2.29267493       0.70135014       1.06335581
17
Properties=species:S:1:pos:R:3 charge=1 charge_a=1 charge_b=0 selection_a=1-5 selection_b=6-17 scaling=2.0 benchmark_Eint=-16.494 benchmark_unit=kcal/mol group=NHk-O pbc="F F F"
N       -2.04112350       1.32828550      -2.08903075
H       -1.45992438       2.15676870      -2.19841210
H       -2.15252933       0.87822933      -2.99539926
H       -2.95753199       1.60805350      -1.74493015
H       -1.56814096       0.63523838      -1.37995562
H        3.29204128      -0.56843828       1.26694775
H        2.42648330       0.21935317       2.61334438
H        2.90410370       1.17147014       1.18140175
H       -0.45363238      -3.00751405       2.65035915
H        0.41160825      -3.79539414       1.30399410
H        1.15579450      -3.73401471       2.92806152
O        1.31069296      -0.03615078       0.86362485
C        0.64815385      -1.15029525       1.08971658
O       -0.42385157      -1.35933585       0.52292686
O        1.20972561      -1.97352336       1.93250890
C        0.51876313      -3.22153964       2.21877759
C        2.57874728       0.20270658       1.53907642
14
Properties=species:S:1:pos:R:3 charge=1 charge_a=1 charge_b=0 selection_a=1-5 selection_b=6-14 scaling=0.8 benchmark_Eint=-18.927 benchmark_unit=kcal/mol group=NHk-O pbc="F F F"
N        2.23114397       0.27688360       0.00959767
H        1.14293302       0.14489982       0.00473894
H        2.62477161      -0.01149776      -0.88463373
H        2.65023236      -0.28244876       0.75071299
H        2.46636163       1.25506886       0.16928112
H       -0.40156815       2.01094619       0.00173128
H       -1.59653805       1.04823889      -0.89560142
H       -1.60193307       1.04508180       0.88887113
H        0.11945147      -2.04190610      -0.00606221
H       -1.28172106      -1.40948208      -0.89885584
H       -1.28502048      -1.41435339       0.88552794
C       -0.97563756       1.08847307      -0.00140764
O       -0.04384897      -0.00301675      -0.00059049
C       -0.66938480      -1.29460839      -0.00521244
14
Properties=species:S:1:pos:R:3 charge=1 charge_a=1 charge_b=0 selection_a=1-5 selection_b=6-14 scaling=0.85 benchmark_Eint=-23.229 benchmark_unit=kcal/mol group=NHk-O pbc="F F F"
N        2.23114397       0.27688360       0.00959767
H        1.14293302       0.14489982       0.00473894
H        2.62477161      -0.01149776      -0.88463373
H        2.65023236      -0.28244876       0.75071299
H        2.46636163       1.25506886       0.16928112
H       -0.47574202       2.00170141       0.00139820
H       -1.67071192       1.03899410      -0.89593451
H       -1.67610694       1.03583701       0.88853804
H        0.04527760      -2.05115089      -0.00639530
H       -1.35589494      -1.41872687      -0.89918893
H       -1.35919436      -1.42359817       0.88519485
C       -1.04981144       1.07922829      -0.00174073
O       -0.11802284      -0.01226154      -0.00092358
C       -0.74355868      -1.30385317      -0.00554552
14
Properties=species:S:1:pos:R:3 charge=1 charge_a=1 charge_b=0 selection_a=1-5 selection_b=6-14 scaling=0.9 benchmark_Eint=-25.748 benchmark_unit=kcal/mol group=NHk-O pbc="F F F"
N        2.23114397       0.27688360       0.00959767
H        1.14293302       0.14489982       0.00473894
H        2.62477161      -0.01149776      -0.88463373
H        2.65023236      -0.28244876       0.75071299
H        2.46636163       1.25506886       0.16928112
H       -0.54991590       1.99245662       0.00106511
H       -1.74488580       1.02974932      -0.89626760
H       -1.75028082       1.02659223       0.88820495
H       -0.02889627      -2.06039567      -0.00672839
H       -1.43006881      -1.42797165      -0.89952202
H       -1.43336823      -1.43284296       0.88486176
C       -1.12398531       1.06998350      -0.00207382
O       -0.19219672      -0.02150632      -0.00125667
C       -0.81773255      -1.31309796      -0.00587861
14
Properties=species:S:1:pos:R:3 charge=1 charge_a=1 charge_b=0 selection_a=1-5 selection_b=6-14 scaling=0.95 benchmark_Eint=-27.017 benchmark_unit=kcal/mol group=NHk-O pbc="F F F"
N        2.23114397       0.27688360       0.00959767
H        1.14293302       0.14489982       0.00473894
H        2.62477161      -0.01149776      -0.88463373
H        2.65023236      -0.28244876       0.75071299
H        2.46636163       1.25506886       0.16928112
H       -0.62408977       1.98321184       0.00073202
H       -1.81905967       1.02050453      -0.89660069
H       -1.82445469       1.01734744       0.88787186
H       -0.10307015      -2.06964046      -0.00706148
H       -1.50424268      -1.43721644      -0.89985511
H       -1.50754211      -1.44208774       0.88452867
C       -1.19815918       1.06073872      -0.00240691
O       -0.26637059      -0.03075111      -0.00158976
C       -0.89190643      -1.32234274      -0.00621170
14
Properties=species:S:1:pos:R:3 charge=1 charge_a=1 charge_b=0 selection_a=1-5 selection_b=6-14 scaling=1.0 benchmark_Eint=-27.408 benchmark_unit=kcal/mol group=NHk-O pbc="F F F"
N        2.23114397       0.27688360       0.00959767
H        1.14293302       0.14489982       0.00473894
H        2.62477161      -0.01149776      -0.88463373
H        2.65023236      -0.28244876       0.75071299
H        2.46636163       1.25506886       0.16928112
H       -0.69826365       1.97396705       0.00039893
H       -1.89323354       1.01125975      -0.89693378
H       -1.89862857       1.00810266       0.88753877
H       -0.17724402      -2.07888524      -0.00739457
H       -1.57841656      -1.44646122      -0.90018820
H       -1.58171598      -1.45133253       0.88419558
C       -1.27233306       1.05149393      -0.00274000
O       -0.34054447      -0.03999589      -0.00192285
C       -0.96608030      -1.33158753      -0.00654479
14
Properties=species:S:1:pos:R:3 charge=1 charge_a=1 charge_b=0 selection_a=1-5 selection_b=6-14 scaling=1.05 benchmark_Eint=-27.189 benchmark_unit=kcal/mol group=NHk-O pbc="F F F"
N        2.23114397       0.27688360       0.00959767
H        1.14293302       0.14489982       0.00473894
H        2.62477161      -0.01149776      -0.88463373
H        2.65023236      -0.28244876       0.75071299
H        2.46636163       1.25506886       0.16928112
H       -0.77243752       1.96472227       0.00006584
H       -1.96740742       1.00201496      -0.89726687
H       -1.97280244       0.99885787       0.88720568
H       -0.25141790      -2.08813003      -0.00772766
H       -1.65259043      -1.45570601      -0.90052128
H       -1.65588986      -1.46057731       0.88386249
C       -1.34650693       1.04224914      -0.00307309
O       -0.41471834      -0.04924068      -0.00225594
C       -1.04025417      -1.34083231      -0.00687788
14
Properties=species:S:1:pos:R:3 charge=1 charge_a=1 charge_b=0 selection_a=1-5 selection_b=6-14 scaling=1.1 benchmark_Eint=-26.554 benchmark_unit=kcal/mol group=NHk-O pbc="F F F"
N        2.23114397       0.27688360       0.00959767
H        1.14293302       0.14489982       0.00473894
H        2.62477161      -0.01149776      -0.88463373
H        2.65023236      -0.28244876       0.75071299
H        2.46636163       1.25506886       0.16928112
H       -0.84661139       1.95547748      -0.00026725
H       -2.04158129       0.99277017      -0.89759996
H       -2.04697631       0.98961309       0.88687260
H       -0.32559177      -2.09737482      -0.00806075
H       -1.72676431      -1.46495080      -0.90085437
H       -1.73006373      -1.46982210       0.88352940
C       -1.42068081       1.03300436      -0.00340618
O       -0.48889221      -0.05848547      -0.00258903
C       -1.11442805      -1.35007710      -0.00721097
14
Properties=species:S:1:pos:R:3 charge=1 charge_a=1 charge_b=0 selection_a=1-5 selection_b=6-14 scaling=1.25 benchmark_Eint=-23.399 benchmark_unit=kcal/mol group=NHk-O pbc="F F F"
N        2.23114397       0.27688360       0.00959767
H        1.14293302       0.14489982       0.00473894
H        2.62477161      -0.01149776      -0.88463373
H        2.65023236      -0.28244876       0.75071299
H        2.46636163       1.25506886       0.16928112
H       -1.06913302       1.92774312      -0.00126652
H       -2.26410292       0.96503582      -0.89859923
H       -2.26949794       0.96187873       0.88587333
H       -0.54811339      -2.12510917      -0.00906001
H       -1.94928593      -1.49268515      -0.90185364
H       -1.95258535      -1.49755646       0.88253013
C       -1.64320243       1.00527000      -0.00440545
O       -0.71141384      -0.08621982      -0.00358830
C       -1.33694967      -1.37781146      -0.00821024
14
Properties=species:S:1:pos:R:3 charge=1 charge_a=1 charge_b=0 selection_a=1-5 selection_b=6-14 scaling=1.5 benchmark_Eint=-17.546 benchmark_unit=kcal/mol group=NHk-O pbc="F F F"
N        2.23114397       0.27688360       0.00959767
H        1.14293302       0.14489982       0.00473894
H        2.62477161      -0.01149776      -0.88463373
H        2.65023236      -0.28244876       0.75071299
H        2.46636163       1.25506886       0.16928112
H       -1.44000239       1.88151920      -0.00293197
H       -2.63497229       0.91881189      -0.90026467
H       -2.64036731       0.91565480       0.88420788
H       -0.91898277      -2.17133310      -0.01072546
H       -2.32015530      -1.53890908      -0.90351909
H       -2.32345472      -1.54378038       0.88086469
C       -2.01407180       0.95904607      -0.00607089
O       -1.08228321      -0.13244375      -0.00525374
C       -1.70781904      -1.42403538      -0.00987569
14
Properties=species:S:1:pos:R:3 charge=1 charge_a=1 charge_b=0 selection_a=1-5 selection_b=6-14 scaling=2.0 benchmark_Eint=-9.845 benchmark_unit=kcal/mol group=NHk-O pbc="F F F"
N        2.23114397       0.27688360       0.00959767
H        1.14293302       0.14489982       0.00473894
H        2.62477161      -0.01149776      -0.88463373
H        2.65023236      -0.28244876       0.75071299
H        2.46636163       1.25506886       0.16928112
H       -2.18174113       1.78907134      -0.00626286
H       -3.37671103       0.82636403      -0.90359557
H       -3.38210605       0.82320694       0.88087699
H       -1.66072151      -2.26378096      -0.01405635
H       -3.06189404      -1.63135694      -0.90684998
H       -3.06519347      -1.63622824       0.87753379
C       -2.75581055       0.86659822      -0.00940178
O       -1.82402195      -0.22489161      -0.00858464
C       -2.44955779      -1.51648324      -0.01320658
12
Properties=species:S:1:pos:R:3 charge=1 charge_a=1 charge_b=0 selection_a=1-5 selection_b=6-12 scaling=0.8 benchmark_Eint=-17.987 benchmark_unit=kcal/mol group=NHk-O pbc="F F F"
N       -1.37667858       1.49522504      -1.67077231
H       -0.66176079       1.27685087      -0.91959962
H       -0.92064562       1.90309873      -2.48625110
H       -2.07572952       2.14692837      -1.31588518
H       -1.83089475       0.62107945      -1.93696617
H        0.81861075      -0.44161645       2.16502423
H        0.84761642      -1.99344794       1.24758957
H        2.05567685      -0.69617659       0.91748590
C        1.03861794      -0.92919104       1.21956327
N        0.13372090      -0.32828799       0.19992495
O        0.21667663       0.89538959       0.02853010
O       -0.63412180      -1.03357878      -0.41330312
12
Properties=species:S:1:pos:R:3 charge=1 charge_a=1 charge_b=0 selection_a=1-5 selection_b=6-12 scaling=0.85 benchmark_Eint=-21.448 benchmark_unit=kcal/mol group=NHk-O pbc="F F F"
N       -1.37667858       1.49522504      -1.67077231
H       -0.66176079       1.27685087      -0.91959962
H       -0.92064562       1.90309873      -2.48625110
H       -2.07572952       2.14692837      -1.31588518
H       -1.83089475       0.62107945      -1.93696617
H        0.87351309      -0.46545778       2.22428234
H        0.90251876      -2.01728927       1.30684768
H        2.11057919      -0.72001792       0.97674401
C        1.09352027      -0.95303237       1.27882138
N        0.18862324      -0.35212932       0.25918306
O        0.27157897       0.87154826       0.08778821
O       -0.57921946      -1.05742011      -0.35404501
12
Properties=species:S:1:pos:R:3 charge=1 charge_a=1 charge_b=0 selection_a=1-5 selection_b=6-12 scaling=0.9 benchmark_Eint=-23.487 benchmark_unit=kcal/mol group=NHk-O pbc="F F F"
N       -1.37667858       1.49522504      -1.67077231
H       -0.66176079       1.27685087      -0.91959962
H       -0.92064562       1.90309873      -2.48625110
H       -2.07572952       2.14692837      -1.31588518
H       -1.83089475       0.62107945      -1.93696617
H        0.92841542      -0.48929911       2.28354045
H        0.95742110      -2.04113060       1.36610579
H        2.16548152      -0.74385925       1.03600211
C        1.14842261      -0.97687370       1.33807949
N        0.24352558      -0.37597065       0.31844117
O        0.32648130       0.84770693       0.14704632
O       -0.52431712      -1.08126144      -0.29478690
12
Properties=species:S:1:pos:R:3 charge=1 charge_a=1 charge_b=0 selection_a=1-5 selection_b=6-12 scaling=0.95 benchmark_Eint=-24.522 benchmark_unit=kcal/mol group=NHk-O pbc="F F F"
N       -1.37667858       1.49522504      -1.67077231
H       -0.66176079       1.27685087      -0.91959962
H       -0.92064562       1.90309873      -2.48625110
H       -2.07572952       2.14692837      -1.31588518
H       -1.83089475       0.62107945      -1.93696617
H        0.98331776      -0.51314044       2.34279856
H        1.01232344      -2.06497193       1.42536389
H        2.22038386      -0.76770058       1.09526022
C        1.20332495      -1.00071503       1.39733760
N        0.29842792      -0.39981198       0.37769927
O        0.38138364       0.82386560       0.20630443
O       -0.46941478      -1.10510277      -0.23552879
12
Properties=species:S:1:pos:R:3 charge=1 charge_a=1 charge_b=0 selection_a=1-5 selection_b=6-12 scaling=1.0 benchmark_Eint=-24.849 benchmark_unit=kcal/mol group=NHk-O pbc="F F F"
N       -1.37667858       1.49522504      -1.67077231
H       -0.66176079       1.27685087      -0.91959962
H       -0.92064562       1.90309873      -2.48625110
H       -2.07572952       2.14692837      -1.31588518
H       -1.83089475       0.62107945      -1.93696617
H        1.03822010      -0.53698177       2.40205666
H        1.06722578      -2.08881326       1.48462200
H        2.27528620      -0.79154191       1.15451833
C        1.25822729      -1.02455636       1.45659570
N        0.35333026      -0.42365331       0.43695738
O        0.43628598       0.80002427       0.26556253
O       -0.41451244      -1.12894410      -0.17627069
12
Properties=species:S:1:pos:R:3 charge=1 charge_a=1 charge_b=0 selection_a=1-5 selection_b=6-12 scaling=1.05 benchmark_Eint=-24.69 benchmark_unit=kcal/mol group=NHk-O pbc="F F F"
N       -1.37667858       1.49522504      -1.67077231
H       -0.66176079       1.27685087      -0.91959962
H       -0.92064562       1.90309873      -2.48625110
H       -2.07572952       2.14692837      -1.31588518
H       -1.83089475       0.62107945      -1.93696617
H        1.09312244      -0.56082310       2.46131477
H        1.12212812      -2.11265459       1.54388011
H        2.33018854      -0.81538324       1.21377644
C        1.31312963      -1.04839769       1.51585381
N        0.40823260      -0.44749464       0.49621549
O        0.49118832       0.77618294       0.32482064
O       -0.35961010      -1.15278543      -0.11701258
12
Properties=species:S:1:pos:R:3 charge=1 charge_a=1 charge_b=0 selection_a=1-5 selection_b=6-12 scaling=1.1 benchmark_Eint=-24.202 benchmark_unit=kcal/mol group=NHk-O pbc="F F F"
N       -1.37667858       1.49522504      -1.67077231
H       -0.66176079       1.27685087      -0.91959962
H       -0.92064562       1.90309873      -2.48625110
H       -2.07572952       2.14692837      -1.31588518
H       -1.83089475       0.62107945      -1.93696617
H        1.14802478      -0.58466443       2.52057288
H        1.17703045      -2.13649592       1.60313822
H        2.38509088      -0.83922457       1.27303454
C        1.36803197      -1.07223902       1.57511192
N        0.46313494      -0.47133597       0.55547360
O        0.54609066       0.75234161       0.38407875
O       -0.30470777      -1.17662676      -0.05775447
12
Properties=species:S:1:pos:R:3 charge=1 charge_a=1 charge_b=0 selection_a=1-5 selection_b=6-12 scaling=1.25 benchmark_Eint=-21.757 benchmark_unit=kcal/mol group=NHk-O pbc="F F F"
N       -1.37667858       1.49522504      -1.67077231
H       -0.66176079       1.27685087      -0.91959962
H       -0.92064562       1.90309873      -2.48625110
H       -2.07572952       2.14692837      -1.31588518
H       -1.83089475       0.62107945      -1.93696617
H        1.31273180      -0.65618842       2.69834720
H        1.34173747      -2.20801991       1.78091254
H        2.54979790      -0.91074856       1.45080887
C        1.53273898      -1.14376301       1.75288624
N        0.62784195      -0.54285996       0.73324792
O        0.71079768       0.68081762       0.56185307
O       -0.14000075      -1.24815075       0.12001985
12
Properties=species:S:1:pos:R:3 charge=1 charge_a=1 charge_b=0 selection_a=1-5 selection_b=6-12 scaling=1.5 benchmark_Eint=-17.201 benchmark_unit=kcal/mol group=NHk-O pbc="F F F"
N       -1.37667858       1.49522504      -1.67077231
H       -0.66176079       1.27685087      -0.91959962
H       -0.92064562       1.90309873      -2.48625110
H       -2.07572952       2.14692837      -1.31588518
H       -1.83089475       0.62107945      -1.93696617
H        1.58724349      -0.77539507       2.99463774
H        1.61624916      -2.32722656       2.07720307
H        2.82430959      -1.02995521       1.74709940
C        1.80725068      -1.26296966       2.04917678
N        0.90235365      -0.66206661       1.02953845
O        0.98530937       0.56161097       0.85814361
O        0.13451094      -1.36735740       0.41631039
12
Properties=species:S:1:pos:R:3 charge=1 charge_a=1 charge_b=0 selection_a=1-5 selection_b=6-12 scaling=2.0 benchmark_Eint=-10.951 benchmark_unit=kcal/mol group=NHk-O pbc="F F F"
N       -1.37667858       1.49522504      -1.67077231
H       -0.66176079       1.27685087      -0.91959962
H       -0.92064562       1.90309873      -2.48625110
H       -2.07572952       2.14692837      -1.31588518
H       -1.83089475       0.62107945      -1.93696617
H        2.13626688      -1.01380836       3.58721881
H        2.16527255      -2.56563986       2.66978415
H        3.37333298      -1.26836850       2.33968048
C        2.35627407      -1.50138296       2.64175785
N        1.45137703      -0.90047991       1.62211953
O        1.53433276       0.32319767       1.45072468
O        0.68353433      -1.60577069       1.00889146
16
Properties=species:S:1:pos:R:3 charge=1 charge_a=1 charge_b=0 selection_a=1-10 selection_b=11-16 scaling=0.8 benchmark_Eint=-10.144 benchmark_unit=kcal/mol group=NHk-O pbc="F F F"
N       -1.17105524       0.88312988      -0.19065245
C       -1.70429041      -0.33462534      -0.19179246
N       -0.92119499      -1.39566392      -0.03921117
N       -3.02169964      -0.48881407      -0.34576902
H       -0.16797486       1.01412118      -0.07433156
H       -1.74752562       1.69714328      -0.30475357
H        0.08234931      -1.28323560       0.07830695
H       -1.30182306      -2.32476695      -0.03692259
H       -3.63075531       0.30069860      -0.46239124
H       -3.44413566      -1.39964735      -0.34924591
H        2.61795288       1.88096115       1.10576764
H        2.83136473       1.78886251      -0.63043769
H        3.55107374       0.49445925       0.41034450
C        2.72181431       1.18300122       0.27189754
N        1.44911535       0.48307804       0.15258230
O        1.51390998      -0.71749676       0.22421215
16
Properties=species:S:1:pos:R:3 charge=1 charge_a=1 charge_b=0 selection_a=1-10 selection_b=11-16 scaling=0.85 benchmark_Eint=-14.029 benchmark_unit=kcal/mol group=NHk-O pbc="F F F"
N       -1.17105524       0.88312988      -0.19065245
C       -1.70429041      -0.33462534      -0.19179246
N       -0.92119499      -1.39566392      -0.03921117
N       -3.02169964      -0.48881407      -0.34576902
H       -0.16797486       1.01412118      -0.07433156
H       -1.74752562       1.69714328      -0.30475357
H        0.08234931      -1.28323560       0.07830695
H       -1.30182306      -2.32476695      -0.03692259
H       -3.63075531       0.30069860      -0.46239124
H       -3.44413566      -1.39964735      -0.34924591
H        2.70742543       1.91631982       1.11488671
H        2.92083728       1.82422119      -0.62131862
H        3.64054629       0.52981792       0.41946358
C        2.81128685       1.21835989       0.28101662
N        1.53858789       0.51843672       0.16170138
O        1.60338253      -0.68213808       0.23333123
16
Properties=species:S:1:pos:R:3 charge=1 charge_a=1 charge_b=0 selection_a=1-10 selection_b=11-16 scaling=0.9 benchmark_Eint=-16.29 benchmark_unit=kcal/mol group=NHk-O pbc="F F F"
N       -1.17105524       0.88312988      -0.19065245
C       -1.70429041      -0.33462534      -0.19179246
N       -0.92119499      -1.39566392      -0.03921117
N       -3.02169964      -0.48881407      -0.34576902
H       -0.16797486       1.01412118      -0.07433156
H       -1.74752562       1.69714328      -0.30475357
H        0.08234931      -1.28323560       0.07830695
H       -1.30182306      -2.32476695      -0.03692259
H       -3.63075531       0.30069860      -0.46239124
H       -3.44413566      -1.39964735      -0.34924591
H        2.79689797       1.95167850       1.12400579
H        3.01030982       1.85957987      -0.61219954
H        3.73001883       0.56517660       0.42858265
C        2.90075940       1.25371857       0.29013569
N        1.62806043       0.55379540       0.17082045
O        1.69285507      -0.64677941       0.24245030
16
Properties=species:S:1:pos:R:3 charge=1 charge_a=1 charge_b=0 selection_a=1-10 selection_b=11-16 scaling=0.95 benchmark_Eint=-17.415 benchmark_unit=kcal/mol group=NHk-O pbc="F F F"
N       -1.17105524       0.88312988      -0.19065245
C       -1.70429041      -0.33462534      -0.19179246
N       -0.92119499      -1.39566392      -0.03921117
N       -3.02169964      -0.48881407      -0.34576902
H       -0.16797486       1.01412118      -0.07433156
H       -1.74752562       1.69714328      -0.30475357
H        0.08234931      -1.28323560       0.07830695
H       -1.30182306      -2.32476695      -0.03692259
H       -3.63075531       0.30069860      -0.46239124
H       -3.44413566      -1.39964735      -0.34924591
H        2.88637051       1.98703718       1.13312487
H        3.09978236       1.89493855      -0.60308047
H        3.81949137       0.60053528       0.43770173
C        2.99023194       1.28907725       0.29925477
N        1.71753298       0.58915408       0.17993953
O        1.78232761      -0.61142073       0.25156938
16
Properties=species:S:1:pos:R:3 charge=1 charge_a=1 charge_b=0 selection_a=1-10 selection_b=11-16 scaling=1.0 benchmark_Eint=-17.76 benchmark_unit=kcal/mol group=NHk-O pbc="F F F"
N       -1.17105524       0.88312988      -0.19065245
C       -1.70429041      -0.33462534      -0.19179246
N       -0.92119499      -1.39566392      -0.03921117
N       -3.02169964      -0.48881407      -0.34576902
H       -0.16797486       1.01412118      -0.07433156
H       -1.74752562       1.69714328      -0.30475357
H        0.08234931      -1.28323560       0.07830695
H       -1.30182306      -2.32476695      -0.03692259
H       -3.63075531       0.30069860      -0.46239124
H       -3.44413566      -1.39964735      -0.34924591
H        2.97584305       2.02239586       1.14224394
H        3.18925490       1.93029722      -0.59396139
H        3.90896391       0.63589396       0.44682080
C        3.07970448       1.32443592       0.30837384
N        1.80700552       0.62451275       0.18905860
O        1.87180015      -0.57606205       0.26068845
16
Properties=species:S:1:pos:R:3 charge=1 charge_a=1 charge_b=0 selection_a=1-10 selection_b=11-16 scaling=1.05 benchmark_Eint=-17.585 benchmark_unit=kcal/mol group=NHk-O pbc="F F F"
N       -1.17105524       0.88312988      -0.19065245
C       -1.70429041      -0.33462534      -0.19179246
N       -0.92119499      -1.39566392      -0.03921117
N       -3.02169964      -0.48881407      -0.34576902
H       -0.16797486       1.01412118      -0.07433156
H       -1.74752562       1.69714328      -0.30475357
H        0.08234931      -1.28323560       0.07830695
H       -1.30182306      -2.32476695      -0.03692259
H       -3.63075531       0.30069860      -0.46239124
H       -3.44413566      -1.39964735      -0.34924591
H        3.06531560       2.05775453       1.15136302
H        3.27872744       1.96565590      -0.58484232
H        3.99843646       0.67125263       0.45593988
C        3.16917702       1.35979460       0.31749292
N        1.89647806       0.65987143       0.19817768
O        1.96127270      -0.54070338       0.26980753
16
Properties=species:S:1:pos:R:3 charge=1 charge_a=1 charge_b=0 selection_a=1-10 selection_b=11-16 scaling=1.1 benchmark_Eint=-17.076 benchmark_unit=kcal/mol group=NHk-O pbc="F F F"
N       -1.17105524       0.88312988      -0.19065245
C       -1.70429041      -0.33462534      -0.19179246
N       -0.92119499      -1.39566392      -0.03921117
N       -3.02169964      -0.48881407      -0.34576902
H       -0.16797486       1.01412118      -0.07433156
H       -1.74752562       1.69714328      -0.30475357
H        0.08234931      -1.28323560       0.07830695
H       -1.30182306      -2.32476695      -0.03692259
H       -3.63075531       0.30069860      -0.46239124
H       -3.44413566      -1.39964735      -0.34924591
H        3.15478814       2.09311321       1.16048209
H        3.36819999       2.00101458      -0.57572324
H        4.08790900       0.70661131       0.46505895
C        3.25864957       1.39515328       0.32661199
N        1.98595060       0.69523011       0.20729676
O        2.05074524      -0.50534470       0.27892660
16
Properties=species:S:1:pos:R:3 charge=1 charge_a=1 charge_b=0 selection_a=1-10 selection_b=11-16 scaling=1.25 benchmark_Eint=-14.678 benchmark_unit=kcal/mol group=NHk-O pbc="F F F"
N       -1.17105524       0.88312988      -0.19065245
C       -1.70429041      -0.33462534      -0.19179246
N       -0.92119499      -1.39566392      -0.03921117
N       -3.02169964      -0.48881407      -0.34576902
H       -0.16797486       1.01412118      -0.07433156
H       -1.74752562       1.69714328      -0.30475357
H        0.08234931      -1.28323560       0.07830695
H       -1.30182306      -2.32476695      -0.03692259
H       -3.63075531       0.30069860      -0.46239124
H       -3.44413566      -1.39964735      -0.34924591
H        3.42320577       2.19918924       1.18783932
H        3.63661762       2.10709061      -0.54836601
H        4.35632663       0.81268734       0.49241618
C        3.52706719       1.50122931       0.35396922
N        2.25436823       0.80130614       0.23465398
O        2.31916287      -0.39926867       0.30628383
16
Properties=species:S:1:pos:R:3 charge=1 charge_a=1 charge_b=0 selection_a=1-10 selection_b=11-16 scaling=1.5 benchmark_Eint=-10.687 benchmark_unit=kcal/mol group=NHk-O pbc="F F F"
N       -1.17105524       0.88312988      -0.19065245
C       -1.70429041      -0.33462534      -0.19179246
N       -0.92119499      -1.39566392      -0.03921117
N       -3.02169964      -0.48881407      -0.34576902
H       -0.16797486       1.01412118      -0.07433156
H       -1.74752562       1.69714328      -0.30475357
H        0.08234931      -1.28323560       0.07830695
H       -1.30182306      -2.32476695      -0.03692259
H       -3.63075531       0.30069860      -0.46239124
H       -3.44413566      -1.39964735      -0.34924591
H        3.87056848       2.37598263       1.23343469
H        4.08398033       2.28388400      -0.50277064
H        4.80368934       0.98948073       0.53801156
C        3.97442991       1.67802270       0.39956460
N        2.70173094       0.97809952       0.28024936
O        2.76652558      -0.22247528       0.35187921
16
Properties=species:S:1:pos:R:3 charge=1 charge_a=1 charge_b=0 selection_a=1-10 selection_b=11-16 scaling=2.0 benchmark_Eint=-6.117 benchmark_unit=kcal/mol group=NHk-O pbc="F F F"
N       -1.17105524       0.88312988      -0.19065245
C       -1.70429041      -0.33462534      -0.19179246
N       -0.92119499      -1.39566392      -0.03921117
N       -3.02169964      -0.48881407      -0.34576902
H       -0.16797486       1.01412118      -0.07433156
H       -1.74752562       1.69714328      -0.30475357
H        0.08234931      -1.28323560       0.07830695
H       -1.30182306      -2.32476695      -0.03692259
H       -3.63075531       0.30069860      -0.46239124
H       -3.44413566      -1.39964735      -0.34924591
H        4.76529390       2.72956940       1.32462545
H        4.97870575       2.63747077      -0.41157988
H        5.69841476       1.34306750       0.62920231
C        4.86915533       2.03160947       0.49075535
N        3.59645637       1.33168630       0.37144011
O        3.66125100       0.13111149       0.44306996
20
Properties=species:S:1:pos:R:3 charge=1 charge_a=1 charge_b=0 selection_a=1-10 selection_b=11-20 scaling=0.8 benchmark_Eint=-14.863 benchmark_unit=kcal/mol group=NHk-O pbc="F F F"
C       -3.16718058      -0.58827381      -0.77230619
C       -1.85110802      -0.77401266      -1.05049152
N       -1.13438028      -0.08582845      -0.09820104
H       -0.09433164      -0.01648055      -0.01437554
C       -1.97176264       0.50534738       0.74063476
N       -3.21410897       0.21310906       0.34918543
H       -4.05267145      -0.94670331      -1.26101913
H       -1.37635116      -1.33095199      -1.83517616
H       -1.69749139       1.11089837       1.58442374
H       -4.05220164       0.53289963       0.80841480
H        3.47590523      -0.14431686      -1.67962850
H        1.87458242      -0.92480361      -1.74680317
H        3.19366421      -1.61616889      -0.77956609
H        2.97021080       1.08786277       1.87013264
H        3.87640679       1.48316222       0.39378938
C        2.72228724      -0.68834226      -1.11071412
C        2.30131757       0.09828079       0.09452107
O        1.12201385       0.26095332       0.37885796
C        3.38048717       0.68452734       0.95027189
H        4.14509296      -0.06119761       1.16813484
20
Properties=species:S:1:pos:R:3 charge=1 charge_a=1 charge_b=0 selection_a=1-10 selection_b=11-20 scaling=0.85 benchmark_Eint=-18.56 benchmark_unit=kcal/mol group=NHk-O pbc="F F F"
C       -3.16718058      -0.58827381      -0.77230619
C       -1.85110802      -0.77401266      -1.05049152
N       -1.13438028      -0.08582845      -0.09820104
H       -0.09433164      -0.01648055      -0.01437554
C       -1.97176264       0.50534738       0.74063476
N       -3.21410897       0.21310906       0.34918543
H       -4.05267145      -0.94670331      -1.26101913
H       -1.37635116      -1.33095199      -1.83517616
H       -1.69749139       1.11089837       1.58442374
H       -4.05220164       0.53289963       0.80841480
H        3.55192683      -0.12697724      -1.65505141
H        1.95060402      -0.90746400      -1.72222608
H        3.26968581      -1.59882927      -0.75498900
H        3.04623239       1.10520238       1.89470973
H        3.95242839       1.50050184       0.41836648
C        2.79830883      -0.67100264      -1.08613703
C        2.37733916       0.11562040       0.11909816
O        1.19803545       0.27829293       0.40343505
C        3.45650876       0.70186695       0.97484899
H        4.22111455      -0.04385799       1.19271193
20
Properties=species:S:1:pos:R:3 charge=1 charge_a=1 charge_b=0 selection_a=1-10 selection_b=11-20 scaling=0.9 benchmark_Eint=-20.731 benchmark_unit=kcal/mol group=NHk-O pbc="F F F"
C       -3.16718058      -0.58827381      -0.77230619
C       -1.85110802      -0.77401266      -1.05049152
N       -1.13438028      -0.08582845      -0.09820104
H       -0.09433164      -0.01648055      -0.01437554
C       -1.97176264       0.50534738       0.74063476
N       -3.21410897       0.21310906       0.34918543
H       -4.05267145      -0.94670331      -1.26101913
H       -1.37635116      -1.33095199      -1.83517616
H       -1.69749139       1.11089837       1.58442374
H       -4.05220164       0.53289963       0.80841480
H        3.62794842      -0.10963763      -1.63047431
H        2.02662561      -0.89012438      -1.69764898
H        3.34570740      -1.58148965      -0.73041190
H        3.12225398       1.12254200       1.91928683
H        4.02844998       1.51784145       0.44294357
C        2.87433043      -0.65366303      -1.06155994
C        2.45336076       0.13296002       0.14367526
O        1.27405704       0.29563255       0.42801214
C        3.53253036       0.71920657       0.99942608
H        4.29713615      -0.02651838       1.21728903
20
Properties=species:S:1:pos:R:3 charge=1 charge_a=1 charge_b=0 selection_a=1-10 selection_b=11-20 scaling=0.95 benchmark_Eint=-21.831 benchmark_unit=kcal/mol group=NHk-O pbc="F F F"
C       -3.16718058      -0.58827381      -0.77230619
C       -1.85110802      -0.77401266      -1.05049152
N       -1.13438028      -0.08582845      -0.09820104
H       -0.09433164      -0.01648055      -0.01437554
C       -1.97176264       0.50534738       0.74063476
N       -3.21410897       0.21310906       0.34918543
H       -4.05267145      -0.94670331      -1.26101913
H       -1.37635116      -1.33095199      -1.83517616
H       -1.69749139       1.11089837       1.58442374
H       -4.05220164       0.53289963       0.80841480
H        3.70397001      -0.09229801      -1.60589722
H        2.10264720      -0.87278477      -1.67307189
H        3.42172899      -1.56415004      -0.70583481
H        3.19827558       1.13988161       1.94386392
H        4.10447157       1.53518107       0.46752066
C        2.95035202      -0.63632341      -1.03698284
C        2.52938235       0.15029964       0.16825235
O        1.35007863       0.31297217       0.45258924
C        3.60855195       0.73654619       1.02400317
H        4.37315774      -0.00917876       1.24186612
20
Properties=species:S:1:pos:R:3 charge=1 charge_a=1 charge_b=0 selection_a=1-10 selection_b=11-20 scaling=1.0 benchmark_Eint=-22.184 benchmark_unit=kcal/mol group=NHk-O pbc="F F F"
C       -3.16718058      -0.58827381      -0.77230619
C       -1.85110802      -0.77401266      -1.05049152
N       -1.13438028      -0.08582845      -0.09820104
H       -0.09433164      -0.01648055      -0.01437554
C       -1.97176264       0.50534738       0.74063476
N       -3.21410897       0.21310906       0.34918543
H       -4.05267145      -0.94670331      -1.26101913
H       -1.37635116      -1.33095199      -1.83517616
H       -1.69749139       1.11089837       1.58442374
H       -4.05220164       0.53289963       0.80841480
H        3.77999161      -0.07495839      -1.58132012
H        2.17866880      -0.85544515      -1.64849480
H        3.49775059      -1.54681042      -0.68125772
H        3.27429717       1.15722123       1.96844101
H        4.18049316       1.55252069       0.49209776
C        3.02637361      -0.61898380      -1.01240575
C        2.60540394       0.16763925       0.19282944
O        1.42610023       0.33031178       0.47716633
C        3.68457354       0.75388580       1.04858027
H        4.44917933       0.00816085       1.26644321
20
Properties=species:S:1:pos:R:3 charge=1 charge_a=1 charge_b=0 selection_a=1-10 selection_b=11-20 scaling=1.05 benchmark_Eint=-22.026 benchmark_unit=kcal/mol group=NHk-O pbc="F F F"
C       -3.16718058      -0.58827381      -0.77230619
C       -1.85110802      -0.77401266      -1.05049152
N       -1.13438028      -0.08582845      -0.09820104
H       -0.09433164      -0.01648055      -0.01437554
C       -1.97176264       0.50534738       0.74063476
N       -3.21410897       0.21310906       0.34918543
H       -4.05267145      -0.94670331      -1.26101913
H       -1.37635116      -1.33095199      -1.83517616
H       -1.69749139       1.11089837       1.58442374
H       -4.05220164       0.53289963       0.80841480
H        3.85601320      -0.05761878      -1.55674303
H        2.25469039      -0.83810553      -1.62391770
H        3.57377218      -1.52947081      -0.65668062
H        3.35031876       1.17456085       1.99301811
H        4.25651476       1.56986030       0.51667485
C        3.10239521      -0.60164418      -0.98782866
C        2.68142554       0.18497887       0.21740654
O        1.50212182       0.34765140       0.50174342
C        3.76059514       0.77122542       1.07315736
H        4.52520093       0.02550047       1.29102030
20
Properties=species:S:1:pos:R:3 charge=1 charge_a=1 charge_b=0 selection_a=1-10 selection_b=11-20 scaling=1.1 benchmark_Eint=-21.527 benchmark_unit=kcal/mol group=NHk-O pbc="F F F"
C       -3.16718058      -0.58827381      -0.77230619
C       -1.85110802      -0.77401266      -1.05049152
N       -1.13438028      -0.08582845      -0.09820104
H       -0.09433164      -0.01648055      -0.01437554
C       -1.97176264       0.50534738       0.74063476
N       -3.21410897       0.21310906       0.34918543
H       -4.05267145      -0.94670331      -1.26101913
H       -1.37635116      -1.33095199      -1.83517616
H       -1.69749139       1.11089837       1.58442374
H       -4.05220164       0.53289963       0.80841480
H        3.93203479      -0.04027916      -1.53216594
H        2.33071198      -0.82076592      -1.59934061
H        3.64979377      -1.51213119      -0.63210353
H        3.42634035       1.19190046       2.01759520
H        4.33253635       1.58719992       0.54125194
C        3.17841680      -0.58430456      -0.96325156
C        2.75744713       0.20231849       0.24198363
O        1.57814341       0.36499101       0.52632051
C        3.83661673       0.78856503       1.09773445
H        4.60122252       0.04284009       1.31559740
20
Properties=species:S:1:pos:R:3 charge=1 charge_a=1 charge_b=0 selection_a=1-10 selection_b=11-20 scaling=1.25 benchmark_Eint=-19.045 benchmark_unit=kcal/mol group=NHk-O pbc="F F F"
C       -3.16718058      -0.58827381      -0.77230619
C       -1.85110802      -0.77401266      -1.05049152
N       -1.13438028      -0.08582845      -0.09820104
H       -0.09433164      -0.01648055      -0.01437554
C       -1.97176264       0.50534738       0.74063476
N       -3.21410897       0.21310906       0.34918543
H       -4.05267145      -0.94670331      -1.26101913
H       -1.37635116      -1.33095199      -1.83517616
H       -1.69749139       1.11089837       1.58442374
H       -4.05220164       0.53289963       0.80841480
H        4.16009957       0.01173969      -1.45843466
H        2.55877676      -0.76874707      -1.52560933
H        3.87785855      -1.46011234      -0.55837225
H        3.65440514       1.24391931       2.09132648
H        4.56060113       1.63921877       0.61498322
C        3.40648158      -0.53228571      -0.88952029
C        2.98551191       0.25433733       0.31571491
O        1.80620819       0.41700986       0.60005180
C        4.06468151       0.84058388       1.17146573
H        4.82928730       0.09485894       1.38932868
20
Properties=species:S:1:pos:R:3 charge=1 charge_a=1 charge_b=0 selection_a=1-10 selection_b=11-20 scaling=1.5 benchmark_Eint=-14.556 benchmark_unit=kcal/mol group=NHk-O pbc="F F F"
C       -3.16718058      -0.58827381      -0.77230619
C       -1.85110802      -0.77401266      -1.05049152
N       -1.13438028      -0.08582845      -0.09820104
H       -0.09433164      -0.01648055      -0.01437554
C       -1.97176264       0.50534738       0.74063476
N       -3.21410897       0.21310906       0.34918543
H       -4.05267145      -0.94670331      -1.26101913
H       -1.37635116      -1.33095199      -1.83517616
H       -1.69749139       1.11089837       1.58442374
H       -4.05220164       0.53289963       0.80841480
H        4.54020754       0.09843777      -1.33554919
H        2.93888473      -0.68204899      -1.40272386
H        4.25796652      -1.37341426      -0.43548678
H        4.03451310       1.33061739       2.21421195
H        4.94070910       1.72591685       0.73786869
C        3.78658954      -0.44558763      -0.76663482
C        3.36561988       0.34103542       0.43860037
O        2.18631616       0.50370794       0.72293726
C        4.44478948       0.92728197       1.29435120
H        5.20939527       0.18155702       1.51221414
20
Properties=species:S:1:pos:R:3 charge=1 charge_a=1 charge_b=0 selection_a=1-10 selection_b=11-20 scaling=2.0 benchmark_Eint=-8.762 benchmark_unit=kcal/mol group=NHk-O pbc="F F F"
C       -3.16718058      -0.58827381      -0.77230619
C       -1.85110802      -0.77401266      -1.05049152
N       -1.13438028      -0.08582845      -0.09820104
H       -0.09433164      -0.01648055      -0.01437554
C       -1.97176264       0.50534738       0.74063476
N       -3.21410897       0.21310906       0.34918543
H       -4.05267145      -0.94670331      -1.26101913
H       -1.37635116      -1.33095199      -1.83517616
H       -1.69749139       1.11089837       1.58442374
H       -4.05220164       0.53289963       0.80841480
H        5.30042347       0.27183393      -1.08977826
H        3.69910066      -0.50865282      -1.15695293
H        5.01818245      -1.20001809      -0.18971585
H        4.79472903       1.50401356       2.45998288
H        5.70092503       1.89931301       0.98363962
C        4.54680548      -0.27219147      -0.52086389
C        4.12583581       0.51443158       0.68437131
O        2.94653209       0.67710411       0.96870819
C        5.20500541       1.10067813       1.54012213
H        5.96961120       0.35495318       1.75798508
22
Properties=species:S:1:pos:R:3 charge=1 charge_a=1 charge_b=0 selection_a=1-10 selection_b=11-22 scaling=0.8 benchmark_Eint=-21.917 benchmark_unit=kcal/mol group=NHk-O pbc="F F F"
C       -3.49754227       0.71080758      -0.65028619
C       -2.29868412       1.08099794      -0.12944293
N       -1.41136658       0.05850723      -0.37320849
H       -0.37947253       0.01869691      -0.09904658
C       -2.03490591      -0.91157552      -1.02152854
N       -3.30568959      -0.53806857      -1.20184648
H       -4.44583016       1.21214791      -0.67682074
H       -2.01251367       1.97701565       0.38685667
H       -1.59675670      -1.83698159      -1.34605852
H       -4.00790352      -1.08889267      -1.66904645
C        1.56259345       1.71220157       1.28220678
H        1.22826690       2.40715318       0.51319075
H        2.47164671       2.10171639       1.73234992
H        0.78998553       1.65647162       2.04775927
C        1.74189467       0.35077293       0.66739376
O        0.80175571      -0.24259564       0.10938036
N        2.94869924      -0.20729014       0.73810761
H        3.68494985       0.29968146       1.19616824
C        3.24468151      -1.52055201       0.18004331
H        2.62386162      -2.28161494       0.64753943
H        3.05864506      -1.52934236      -0.89161370
H        4.28945835      -1.74682286       0.36459178
22
Properties=species:S:1:pos:R:3 charge=1 charge_a=1 charge_b=0 selection_a=1-10 selection_b=11-22 scaling=0.85 benchmark_Eint=-26.063 benchmark_unit=kcal/mol group=NHk-O pbc="F F F"
C       -3.49754227       0.71080758      -0.65028619
C       -2.29868412       1.08099794      -0.12944293
N       -1.41136658       0.05850723      -0.37320849
H       -0.37947253       0.01869691      -0.09904658
C       -2.03490591      -0.91157552      -1.02152854
N       -3.30568959      -0.53806857      -1.20184648
H       -4.44583016       1.21214791      -0.67682074
H       -2.01251367       1.97701565       0.38685667
H       -1.59675670      -1.83698159      -1.34605852
H       -4.00790352      -1.08889267      -1.66904645
C        1.63642022       1.69587079       1.29523346
H        1.30209367       2.39082239       0.52621743
H        2.54547348       2.08538560       1.74537660
H        0.86381229       1.64014083       2.06078595
C        1.81572144       0.33444214       0.68042045
O        0.87558247      -0.25892642       0.12240704
N        3.02252601      -0.22362092       0.75113430
H        3.75877662       0.28335068       1.20919492
C        3.31850828      -1.53688279       0.19306999
H        2.69768839      -2.29794572       0.66056611
H        3.13247182      -1.54567315      -0.87858701
H        4.36328511      -1.76315364       0.37761847
22
Properties=species:S:1:pos:R:3 charge=1 charge_a=1 charge_b=0 selection_a=1-10 selection_b=11-22 scaling=0.9 benchmark_Eint=-28.491 benchmark_unit=kcal/mol group=NHk-O pbc="F F F"
C       -3.49754227       0.71080758      -0.65028619
C       -2.29868412       1.08099794      -0.12944293
N       -1.41136658       0.05850723      -0.37320849
H       -0.37947253       0.01869691      -0.09904658
C       -2.03490591      -0.91157552      -1.02152854
N       -3.30568959      -0.53806857      -1.20184648
H       -4.44583016       1.21214791      -0.67682074
H       -2.01251367       1.97701565       0.38685667
H       -1.59675670      -1.83698159      -1.34605852
H       -4.00790352      -1.08889267      -1.66904645
C        1.71024698       1.67954000       1.30826014
H        1.37592043       2.37449161       0.53924412
H        2.61930024       2.06905482       1.75840329
H        0.93763905       1.62381005       2.07381264
C        1.88954820       0.31811136       0.69344713
O        0.94940923      -0.27525721       0.13543372
N        3.09635277      -0.23995171       0.76416098
H        3.83260338       0.26701989       1.22222161
C        3.39233504      -1.55321358       0.20609668
H        2.77151515      -2.31427651       0.67359280
H        3.20629859      -1.56200393      -0.86556033
H        4.43711188      -1.77948442       0.39064515
22
Properties=species:S:1:pos:R:3 charge=1 charge_a=1 charge_b=0 selection_a=1-10 selection_b=11-22 scaling=0.95 benchmark_Eint=-29.708 benchmark_unit=kcal/mol group=NHk-O pbc="F F F"
C       -3.49754227       0.71080758      -0.65028619
C       -2.29868412       1.08099794      -0.12944293
N       -1.41136658       0.05850723      -0.37320849
H       -0.37947253       0.01869691      -0.09904658
C       -2.03490591      -0.91157552      -1.02152854
N       -3.30568959      -0.53806857      -1.20184648
H       -4.44583016       1.21214791      -0.67682074
H       -2.01251367       1.97701565       0.38685667
H       -1.59675670      -1.83698159      -1.34605852
H       -4.00790352      -1.08889267      -1.66904645
C        1.78407375       1.66320922       1.32128683
H        1.44974720       2.35816082       0.55227080
H        2.69312700       2.05272404       1.77142997
H        1.01146582       1.60747926       2.08683932
C        1.96337497       0.30178057       0.70647381
O        1.02323600      -0.29158799       0.14846041
N        3.17017953      -0.25628249       0.77718767
H        3.90643014       0.25068911       1.23524829
C        3.46616181      -1.56954436       0.21912336
H        2.84534191      -2.33060729       0.68661948
H        3.28012535      -1.57833471      -0.85253365
H        4.51093864      -1.79581521       0.40367183
22
Properties=species:S:1:pos:R:3 charge=1 charge_a=1 charge_b=0 selection_a=1-10 selection_b=11-22 scaling=1.0 benchmark_Eint=-30.073 benchmark_unit=kcal/mol group=NHk-O pbc="F F F"
C       -3.49754227       0.71080758      -0.65028619
C       -2.29868412       1.08099794      -0.12944293
N       -1.41136658       0.05850723      -0.37320849
H       -0.37947253       0.01869691      -0.09904658
C       -2.03490591      -0.91157552      -1.02152854
N       -3.30568959      -0.53806857      -1.20184648
H       -4.44583016       1.21214791      -0.67682074
H       -2.01251367       1.97701565       0.38685667
H       -1.59675670      -1.83698159      -1.34605852
H       -4.00790352      -1.08889267      -1.66904645
C        1.85790051       1.64687844       1.33431351
H        1.52357396       2.34183004       0.56529748
H        2.76695377       2.03639325       1.78445666
H        1.08529258       1.59114848       2.09986600
C        2.03720173       0.28544979       0.71950050
O        1.09706276      -0.30791877       0.16148709
N        3.24400630      -0.27261327       0.79021435
H        3.98025691       0.23435833       1.24827497
C        3.53998857      -1.58587515       0.23215005
H        2.91916868      -2.34693808       0.69964617
H        3.35395212      -1.59466550      -0.83950696
H        4.58476540      -1.81214599       0.41669852
22
Properties=species:S:1:pos:R:3 charge=1 charge_a=1 charge_b=0 selection_a=1-10 selection_b=11-22 scaling=1.05 benchmark_Eint=-29.846 benchmark_unit=kcal/mol group=NHk-O pbc="F F F"
C       -3.49754227       0.71080758      -0.65028619
C       -2.29868412       1.08099794      -0.12944293
N       -1.41136658       0.05850723      -0.37320849
H       -0.37947253       0.01869691      -0.09904658
C       -2.03490591      -0.91157552      -1.02152854
N       -3.30568959      -0.53806857      -1.20184648
H       -4.44583016       1.21214791      -0.67682074
H       -2.01251367       1.97701565       0.38685667
H       -1.59675670      -1.83698159      -1.34605852
H       -4.00790352      -1.08889267      -1.66904645
C        1.93172728       1.63054765       1.34734020
H        1.59740073       2.32549926       0.57832417
H        2.84078053       2.02006247       1.79748334
H        1.15911935       1.57481770       2.11289269
C        2.11102850       0.26911901       0.73252718
O        1.17088953      -0.32424956       0.17451378
N        3.31783306      -0.28894406       0.80324103
H        4.05408367       0.21802754       1.26130166
C        3.61381533      -1.60220593       0.24517673
H        2.99299544      -2.36326886       0.71267285
H        3.42777888      -1.61099628      -0.82648028
H        4.65859217      -1.82847678       0.42972520
22
Properties=species:S:1:pos:R:3 charge=1 charge_a=1 charge_b=0 selection_a=1-10 selection_b=11-22 scaling=1.1 benchmark_Eint=-29.216 benchmark_unit=kcal/mol group=NHk-O pbc="F F F"
C       -3.49754227       0.71080758      -0.65028619
C       -2.29868412       1.08099794      -0.12944293
N       -1.41136658       0.05850723      -0.37320849
H       -0.37947253       0.01869691      -0.09904658
C       -2.03490591      -0.91157552      -1.02152854
N       -3.30568959      -0.53806857      -1.20184648
H       -4.44583016       1.21214791      -0.67682074
H       -2.01251367       1.97701565       0.38685667
H       -1.59675670      -1.83698159      -1.34605852
H       -4.00790352      -1.08889267      -1.66904645
C        2.00555404       1.61421687       1.36036688
H        1.67122749       2.30916847       0.59135085
H        2.91460730       2.00373168       1.81051002
H        1.23294611       1.55848691       2.12591937
C        2.18485526       0.25278822       0.74555387
O        1.24471629      -0.34058034       0.18754046
N        3.39165983      -0.30527484       0.81626772
H        4.12791044       0.20169676       1.27432834
C        3.68764210      -1.61853672       0.25820341
H        3.06682221      -2.37959964       0.72569953
H        3.50160565      -1.62732707      -0.81345360
H        4.73241893      -1.84480756       0.44275189
22
Properties=species:S:1:pos:R:3 charge=1 charge_a=1 charge_b=0 selection_a=1-10 selection_b=11-22 scaling=1.25 benchmark_Eint=-26.108 benchmark_unit=kcal/mol group=NHk-O pbc="F F F"
C       -3.49754227       0.71080758      -0.65028619
C       -2.29868412       1.08099794      -0.12944293
N       -1.41136658       0.05850723      -0.37320849
H       -0.37947253       0.01869691      -0.09904658
C       -2.03490591      -0.91157552      -1.02152854
N       -3.30568959      -0.53806857      -1.20184648
H       -4.44583016       1.21214791      -0.67682074
H       -2.01251367       1.97701565       0.38685667
H       -1.59675670      -1.83698159      -1.34605852
H       -4.00790352      -1.08889267      -1.66904645
C        2.22703433       1.56522451       1.39944693
H        1.89270779       2.26017612       0.63043090
H        3.13608759       1.95473933       1.84959007
H        1.45442641       1.50949456       2.16499942
C        2.40633555       0.20379587       0.78463392
O        1.46619659      -0.38957270       0.22662051
N        3.61314012      -0.35426720       0.85534777
H        4.34939073       0.15270440       1.31340839
C        3.90912239      -1.66752907       0.29728346
H        3.28830250      -2.42859200       0.76477958
H        3.72308594      -1.67631942      -0.77437354
H        4.95389923      -1.89379991       0.48183194
22
Properties=species:S:1:pos:R:3 charge=1 charge_a=1 charge_b=0 selection_a=1-10 selection_b=11-22 scaling=1.5 benchmark_Eint=-20.32 benchmark_unit=kcal/mol group=NHk-O pbc="F F F"
C       -3.49754227       0.71080758      -0.65028619
C       -2.29868412       1.08099794      -0.12944293
N       -1.41136658       0.05850723      -0.37320849
H       -0.37947253       0.01869691      -0.09904658
C       -2.03490591      -0.91157552      -1.02152854
N       -3.30568959      -0.53806857      -1.20184648
H       -4.44583016       1.21214791      -0.67682074
H       -2.01251367       1.97701565       0.38685667
H       -1.59675670      -1.83698159      -1.34605852
H       -4.00790352      -1.08889267      -1.66904645
C        2.59616816       1.48357059       1.46458035
H        2.26184161       2.17852220       0.69556432
H        3.50522141       1.87308541       1.91472349
H        1.82356023       1.42784064       2.23013284
C        2.77546938       0.12214195       0.84976734
O        1.83533041      -0.47122662       0.29175393
N        3.98227394      -0.43592112       0.92048119
H        4.71852455       0.07105048       1.37854181
C        4.27825621      -1.74918299       0.36241688
H        3.65743632      -2.51024592       0.82991300
H        4.09221976      -1.75797334      -0.70924012
H        5.32303305      -1.97545384       0.54696536
22
Properties=species:S:1:pos:R:3 charge=1 charge_a=1 charge_b=0 selection_a=1-10 selection_b=11-22 scaling=2.0 benchmark_Eint=-12.469 benchmark_unit=kcal/mol group=NHk-O pbc="F F F"
C       -3.49754227       0.71080758      -0.65028619
C       -2.29868412       1.08099794      -0.12944293
N       -1.41136658       0.05850723      -0.37320849
H       -0.37947253       0.01869691      -0.09904658
C       -2.03490591      -0.91157552      -1.02152854
N       -3.30568959      -0.53806857      -1.20184648
H       -4.44583016       1.21214791      -0.67682074
H       -2.01251367       1.97701565       0.38685667
H       -1.59675670      -1.83698159      -1.34605852
H       -4.00790352      -1.08889267      -1.66904645
C        3.33443580       1.32026275       1.59484719
H        3.00010925       2.01521435       0.82583116
H        4.24348906       1.70977757       2.04499033
H        2.56182787       1.26453280       2.36039968
C        3.51373702      -0.04116589       0.98003417
O        2.57359805      -0.63453446       0.42202077
N        4.72054159      -0.59922896       1.05074802
H        5.45679220      -0.09225736       1.50880865
C        5.01652386      -1.91249083       0.49268372
H        4.39570397      -2.67355376       0.96017984
H        4.83048741      -1.92128118      -0.57897329
H        6.06130069      -2.13876168       0.67723219
23
Properties=species:S:1:pos:R:3 charge=1 charge_a=1 charge_b=0 selection_a=1-10 selection_b=11-23 scaling=0.8 benchmark_Eint=-11.185 benchmark_unit=kcal/mol group=NHk-O pbc="F F F"
C       -2.78882642      -0.10696819      -1.72440060
C       -1.60736103       0.06675309      -1.07889253
N       -1.87542047       0.00018402       0.27114908
H       -1.16532346       0.10169435       1.01805466
C       -3.17133306      -0.20725599       0.45821875
N       -3.74522562      -0.27541830      -0.74399867
H       -3.02836401      -0.12729319      -2.77020189
H       -0.61208791       0.21895486      -1.45058334
H       -3.67125805      -0.30477963       1.40406123
H       -4.72878354      -0.42864700      -0.90271689
H        0.53086816      -1.91149772       0.40912890
H        3.75233087      -0.19550256      -1.84691925
H        2.26949624      -2.11211862      -1.34824602
H        1.72640035       2.13670869       1.12336374
H        0.14744636       0.92952509       2.38767767
H        3.48783658       1.92049342      -0.59347750
C        2.98297300      -0.10416898      -1.09521247
C        2.14676815      -1.17896334      -0.81819621
C        1.16306013      -1.07188589       0.15791362
C        1.02341597       0.12591962       0.84223341
C        1.84781517       1.20906120       0.57955442
C        2.83555791       1.08407933      -0.39031674
O       -0.01453646       0.20799291       1.77128872
23
Properties=species:S:1:pos:R:3 charge=1 charge_a=1 charge_b=0 selection_a=1-10 selection_b=11-23 scaling=0.85 benchmark_Eint=-14.521 benchmark_unit=kcal/mol group=NHk-O pbc="F F F"
C       -2.78882642      -0.10696819      -1.72440060
C       -1.60736103       0.06675309      -1.07889253
N       -1.87542047       0.00018402       0.27114908
H       -1.16532346       0.10169435       1.01805466
C       -3.17133306      -0.20725599       0.45821875
N       -3.74522562      -0.27541830      -0.74399867
H       -3.02836401      -0.12729319      -2.77020189
H       -0.61208791       0.21895486      -1.45058334
H       -3.67125805      -0.30477963       1.40406123
H       -4.72878354      -0.42864700      -0.90271689
H        0.60279235      -1.90485406       0.45620603
H        3.82425506      -0.18885890      -1.79984213
H        2.34142043      -2.10547496      -1.30116889
H        1.79832454       2.14335235       1.17044087
H        0.21937054       0.93616875       2.43475479
H        3.55976077       1.92713708      -0.54640037
C        3.05489719      -0.09752532      -1.04813534
C        2.21869234      -1.17231968      -0.77111909
C        1.23498432      -1.06524223       0.20499075
C        1.09534016       0.13256328       0.88931054
C        1.91973935       1.21570486       0.62663155
C        2.90748210       1.09072299      -0.34323961
O        0.05738772       0.21463657       1.81836585
23
Properties=species:S:1:pos:R:3 charge=1 charge_a=1 charge_b=0 selection_a=1-10 selection_b=11-23 scaling=0.9 benchmark_Eint=-16.445 benchmark_unit=kcal/mol group=NHk-O pbc="F F F"
C       -2.78882642      -0.10696819      -1.72440060
C       -1.60736103       0.06675309      -1.07889253
N       -1.87542047       0.00018402       0.27114908
H       -1.16532346       0.10169435       1.01805466
C       -3.17133306      -0.20725599       0.45821875
N       -3.74522562      -0.27541830      -0.74399867
H       -3.02836401      -0.12729319      -2.77020189
H       -0.61208791       0.21895486      -1.45058334
H       -3.67125805      -0.30477963       1.40406123
H       -4.72878354      -0.42864700      -0.90271689
H        0.67471653      -1.89821040       0.50328316
H        3.89617924      -0.18221524      -1.75276500
H        2.41334462      -2.09883130      -1.25409176
H        1.87024872       2.14999601       1.21751799
H        0.29129473       0.94281241       2.48183192
H        3.63168495       1.93378074      -0.49932324
C        3.12682138      -0.09088166      -1.00105822
C        2.29061652      -1.16567602      -0.72404196
C        1.30690851      -1.05859857       0.25206788
C        1.16726434       0.13920694       0.93638767
C        1.99166354       1.22234852       0.67370868
C        2.97940628       1.09736665      -0.29616248
O        0.12931191       0.22128023       1.86544298
23
Properties=species:S:1:pos:R:3 charge=1 charge_a=1 charge_b=0 selection_a=1-10 selection_b=11-23 scaling=0.95 benchmark_Eint=-17.381 benchmark_unit=kcal/mol group=NHk-O pbc="F F F"
C       -2.78882642      -0.10696819      -1.72440060
C       -1.60736103       0.06675309      -1.07889253
N       -1.87542047       0.00018402       0.27114908
H       -1.16532346       0.10169435       1.01805466
C       -3.17133306      -0.20725599       0.45821875
N       -3.74522562      -0.27541830      -0.74399867
H       -3.02836401      -0.12729319      -2.77020189
H       -0.61208791       0.21895486      -1.45058334
H       -3.67125805      -0.30477963       1.40406123
H       -4.72878354      -0.42864700      -0.90271689
H        0.74664072      -1.89156674       0.55036029
H        3.96810343      -0.17557158      -1.70568787
H        2.48526880      -2.09218764      -1.20701463
H        1.94217291       2.15663967       1.26459512
H        0.36321892       0.94945607       2.52890905
H        3.70360914       1.94042440      -0.45224611
C        3.19874557      -0.08423800      -0.95398109
C        2.36254071      -1.15903236      -0.67696483
C        1.37883269      -1.05195491       0.29914501
C        1.23918853       0.14585060       0.98346479
C        2.06358773       1.22899218       0.72078581
C        3.05133047       1.10401031      -0.24908536
O        0.20123610       0.22792389       1.91252011
23
Properties=species:S:1:pos:R:3 charge=1 charge_a=1 charge_b=0 selection_a=1-10 selection_b=11-23 scaling=1.0 benchmark_Eint=-17.64 benchmark_unit=kcal/mol group=NHk-O pbc="F F F"
C       -2.78882642      -0.10696819      -1.72440060
C       -1.60736103       0.06675309      -1.07889253
N       -1.87542047       0.00018402       0.27114908
H       -1.16532346       0.10169435       1.01805466
C       -3.17133306      -0.20725599       0.45821875
N       -3.74522562      -0.27541830      -0.74399867
H       -3.02836401      -0.12729319      -2.77020189
H       -0.61208791       0.21895486      -1.45058334
H       -3.67125805      -0.30477963       1.40406123
H       -4.72878354      -0.42864700      -0.90271689
H        0.81856491      -1.88492308       0.59743742
H        4.04002762      -0.16892792      -1.65861074
H        2.55719299      -2.08554398      -1.15993750
H        2.01409710       2.16328333       1.31167225
H        0.43514310       0.95609973       2.57598618
H        3.77553333       1.94706806      -0.40516898
C        3.27066975      -0.07759434      -0.90690396
C        2.43446490      -1.15238870      -0.62988770
C        1.45075688      -1.04531125       0.34622214
C        1.31111272       0.15249426       1.03054192
C        2.13551192       1.23563584       0.76786294
C        3.12325466       1.11065397      -0.20200823
O        0.27316029       0.23456755       1.95959724
23
Properties=species:S:1:pos:R:3 charge=1 charge_a=1 charge_b=0 selection_a=1-10 selection_b=11-23 scaling=1.05 benchmark_Eint=-17.441 benchmark_unit=kcal/mol group=NHk-O pbc="F F F"
C       -2.78882642      -0.10696819      -1.72440060
C       -1.60736103       0.06675309      -1.07889253
N       -1.87542047       0.00018402       0.27114908
H       -1.16532346       0.10169435       1.01805466
C       -3.17133306      -0.20725599       0.45821875
N       -3.74522562      -0.27541830      -0.74399867
H       -3.02836401      -0.12729319      -2.77020189
H       -0.61208791       0.21895486      -1.45058334
H       -3.67125805      -0.30477963       1.40406123
H       -4.72878354      -0.42864700      -0.90271689
H        0.89048909      -1.87827942       0.64451455
H        4.11195181      -0.16228426      -1.61153361
H        2.62911718      -2.07890032      -1.11286037
H        2.08602128       2.16992699       1.35874938
H        0.50706729       0.96274339       2.62306331
H        3.84745751       1.95371172      -0.35809185
C        3.34259394      -0.07095068      -0.85982683
C        2.50638908      -1.14574504      -0.58281057
C        1.52268107      -1.03866759       0.39329927
C        1.38303691       0.15913792       1.07761905
C        2.20743610       1.24227950       0.81494007
C        3.19517885       1.11729763      -0.15493110
O        0.34508447       0.24121121       2.00667437
23
Properties=species:S:1:pos:R:3 charge=1 charge_a=1 charge_b=0 selection_a=1-10 selection_b=11-23 scaling=1.1 benchmark_Eint=-16.945 benchmark_unit=kcal/mol group=NHk-O pbc="F F F"
C       -2.78882642      -0.10696819      -1.72440060
C       -1.60736103       0.06675309      -1.07889253
N       -1.87542047       0.00018402       0.27114908
H       -1.16532346       0.10169435       1.01805466
C       -3.17133306      -0.20725599       0.45821875
N       -3.74522562      -0.27541830      -0.74399867
H       -3.02836401      -0.12729319      -2.77020189
H       -0.61208791       0.21895486      -1.45058334
H       -3.67125805      -0.30477963       1.40406123
H       -4.72878354      -0.42864700      -0.90271689
H        0.96241328      -1.87163576       0.69159168
H        4.18387599      -0.15564060      -1.56445648
H        2.70104137      -2.07225666      -1.06578324
H        2.15794547       2.17657065       1.40582651
H        0.57899148       0.96938705       2.67014044
H        3.91938170       1.96035538      -0.31101472
C        3.41451813      -0.06430702      -0.81274970
C        2.57831327      -1.13910138      -0.53573344
C        1.59460525      -1.03202393       0.44037640
C        1.45496109       0.16578158       1.12469618
C        2.27936029       1.24892316       0.86201719
C        3.26710303       1.12394129      -0.10785397
O        0.41700866       0.24785487       2.05375150
23
Properties=species:S:1:pos:R:3 charge=1 charge_a=1 charge_b=0 selection_a=1-10 selection_b=11-23 scaling=1.25 benchmark_Eint=-14.651 benchmark_unit=kcal/mol group=NHk-O pbc="F F F"
C       -2.78882642      -0.10696819      -1.72440060
C       -1.60736103       0.06675309      -1.07889253
N       -1.87542047       0.00018402       0.27114908
H       -1.16532346       0.10169435       1.01805466
C       -3.17133306      -0.20725599       0.45821875
N       -3.74522562      -0.27541830      -0.74399867
H       -3.02836401      -0.12729319      -2.77020189
H       -0.61208791       0.21895486      -1.45058334
H       -3.67125805      -0.30477963       1.40406123
H       -4.72878354      -0.42864700      -0.90271689
H        1.17818584      -1.85170478       0.83282307
H        4.39964855      -0.13570962      -1.42322509
H        2.91681393      -2.05232568      -0.92455186
H        2.37371803       2.19650163       1.54705790
H        0.79476404       0.98931803       2.81137183
H        4.13515426       1.98028636      -0.16978334
C        3.63029069      -0.04437604      -0.67151831
C        2.79408583      -1.11917040      -0.39450205
C        1.81037782      -1.01209295       0.58160778
C        1.67073365       0.18571256       1.26592757
C        2.49513285       1.26885414       1.00324858
C        3.48287559       1.14387227       0.03337742
O        0.63278122       0.26778585       2.19498288
23
Properties=species:S:1:pos:R:3 charge=1 charge_a=1 charge_b=0 selection_a=1-10 selection_b=11-23 scaling=1.5 benchmark_Eint=-10.724 benchmark_unit=kcal/mol group=NHk-O pbc="F F F"
C       -2.78882642      -0.10696819      -1.72440060
C       -1.60736103       0.06675309      -1.07889253
N       -1.87542047       0.00018402       0.27114908
H       -1.16532346       0.10169435       1.01805466
C       -3.17133306      -0.20725599       0.45821875
N       -3.74522562      -0.27541830      -0.74399867
H       -3.02836401      -0.12729319      -2.77020189
H       -0.61208791       0.21895486      -1.45058334
H       -3.67125805      -0.30477963       1.40406123
H       -4.72878354      -0.42864700      -0.90271689
H        1.53780678      -1.81848648       1.06820871
H        4.75926949      -0.10249132      -1.18783945
H        3.27643486      -2.01910738      -0.68916621
H        2.73333897       2.22971993       1.78244354
H        1.15438497       1.02253633       3.04675747
H        4.49477520       2.01350466       0.06560231
C        3.98991162      -0.01115774      -0.43613267
C        3.15370677      -1.08595210      -0.15911641
C        2.16999875      -0.97887465       0.81699343
C        2.03035459       0.21893086       1.50131321
C        2.85475379       1.30207244       1.23863423
C        3.84249653       1.17709057       0.26876307
O        0.99240215       0.30100415       2.43036853
23
Properties=species:S:1:pos:R:3 charge=1 charge_a=1 charge_b=0 selection_a=1-10 selection_b=11-23 scaling=2.0 benchmark_Eint=-5.985 benchmark_unit=kcal/mol group=NHk-O pbc="F F F"
C       -2.78882642      -0.10696819      -1.72440060
C       -1.60736103       0.06675309      -1.07889253
N       -1.87542047       0.00018402       0.27114908
H       -1.16532346       0.10169435       1.01805466
C       -3.17133306      -0.20725599       0.45821875
N       -3.74522562      -0.27541830      -0.74399867
H       -3.02836401      -0.12729319      -2.77020189
H       -0.61208791       0.21895486      -1.45058334
H       -3.67125805      -0.30477963       1.40406123
H       -4.72878354      -0.42864700      -0.90271689
H        2.25704865      -1.75204988       1.53898000
H        5.47851136      -0.03605472      -0.71706816
H        3.99567673      -1.95267079      -0.21839492
H        3.45258084       2.29615653       2.25321484
H        1.87362684       1.08897292       3.51752876
H        5.21401707       2.07994126       0.53637360
C        4.70915349       0.05527886       0.03463862
C        3.87294864      -1.01951550       0.31165488
C        2.88924062      -0.91243805       1.28776472
C        2.74959646       0.28536746       1.97208450
C        3.57399566       1.36850904       1.70940552
C        4.56173840       1.24352717       0.73953436
O        1.71164403       0.36744075       2.90113982
21
Properties=species:S:1:pos:R:3 charge=1 charge_a=1 charge_b=0 selection_a=1-14 selection_b=15-21 scaling=0.8 benchmark_Eint=-13.106 benchmark_unit=kcal/mol group=NHk-O pbc="F F F"
C        0.40729788      -1.42568942      -1.75313435
N       -0.25166894      -0.12595046      -1.43021399
H       -0.22560942      -0.02755940      -0.39590091
C        0.51105364       1.02874989      -1.98944112
C       -1.67869424      -0.10723311      -1.86228419
H        1.41977204      -1.40913516      -1.36356503
H        0.42149169      -1.55739911      -2.83119223
H       -0.15370923      -2.22935484      -1.28714648
H        1.52171496       1.00207758      -1.59573758
H        0.02298432       1.95051278      -1.68961331
H        0.52754409       0.95106317      -3.07270177
H       -2.20084893      -0.93352196      -1.39044069
H       -1.72356320      -0.20936906      -2.94270743
H       -2.12612794       0.83450708      -1.56068504
H        0.48600866      -0.52137594       3.92937572
H        0.56627703       1.21255457       3.76277185
H        1.77462287       0.19847844       2.91668291
H       -1.26457549       0.28005052       2.29997340
C        0.73670561       0.27618585       3.22518819
C       -0.18880197       0.20795136       2.06947674
O        0.16857266       0.08010096       0.91306015
21
Properties=species:S:1:pos:R:3 charge=1 charge_a=1 charge_b=0 selection_a=1-14 selection_b=15-21 scaling=0.85 benchmark_Eint=-16.571 benchmark_unit=kcal/mol group=NHk-O pbc="F F F"
C        0.40729788      -1.42568942      -1.75313435
N       -0.25166894      -0.12595046      -1.43021399
H       -0.22560942      -0.02755940      -0.39590091
C        0.51105364       1.02874989      -1.98944112
C       -1.67869424      -0.10723311      -1.86228419
H        1.41977204      -1.40913516      -1.36356503
H        0.42149169      -1.55739911      -2.83119223
H       -0.15370923      -2.22935484      -1.28714648
H        1.52171496       1.00207758      -1.59573758
H        0.02298432       1.95051278      -1.68961331
H        0.52754409       0.95106317      -3.07270177
H       -2.20084893      -0.93352196      -1.39044069
H       -1.72356320      -0.20936906      -2.94270743
H       -2.12612794       0.83450708      -1.56068504
H        0.51064504      -0.51464717       4.01118579
H        0.59091341       1.21928335       3.84458192
H        1.79925925       0.20520722       2.99849298
H       -1.23993911       0.28677930       2.38178347
C        0.76134199       0.28291462       3.30699825
C       -0.16416559       0.21468013       2.15128680
O        0.19320904       0.08682973       0.99487022
21
Properties=species:S:1:pos:R:3 charge=1 charge_a=1 charge_b=0 selection_a=1-14 selection_b=15-21 scaling=0.9 benchmark_Eint=-18.611 benchmark_unit=kcal/mol group=NHk-O pbc="F F F"
C        0.40729788      -1.42568942      -1.75313435
N       -0.25166894      -0.12595046      -1.43021399
H       -0.22560942      -0.02755940      -0.39590091
C        0.51105364       1.02874989      -1.98944112
C       -1.67869424      -0.10723311      -1.86228419
H        1.41977204      -1.40913516      -1.36356503
H        0.42149169      -1.55739911      -2.83119223
H       -0.15370923      -2.22935484      -1.28714648
H        1.52171496       1.00207758      -1.59573758
H        0.02298432       1.95051278      -1.68961331
H        0.52754409       0.95106317      -3.07270177
H       -2.20084893      -0.93352196      -1.39044069
H       -1.72356320      -0.20936906      -2.94270743
H       -2.12612794       0.83450708      -1.56068504
H        0.53528142      -0.50791840       4.09299585
H        0.61554979       1.22601212       3.92639198
H        1.82389563       0.21193599       3.08030305
H       -1.21530273       0.29350807       2.46359354
C        0.78597837       0.28964340       3.38880832
C       -0.13952921       0.22140891       2.23309687
O        0.21784542       0.09355851       1.07668028
21
Properties=species:S:1:pos:R:3 charge=1 charge_a=1 charge_b=0 selection_a=1-14 selection_b=15-21 scaling=0.95 benchmark_Eint=-19.651 benchmark_unit=kcal/mol group=NHk-O pbc="F F F"
C        0.40729788      -1.42568942      -1.75313435
N       -0.25166894      -0.12595046      -1.43021399
H       -0.22560942      -0.02755940      -0.39590091
C        0.51105364       1.02874989      -1.98944112
C       -1.67869424      -0.10723311      -1.86228419
H        1.41977204      -1.40913516      -1.36356503
H        0.42149169      -1.55739911      -2.83119223
H       -0.15370923      -2.22935484      -1.28714648
H        1.52171496       1.00207758      -1.59573758
H        0.02298432       1.95051278      -1.68961331
H        0.52754409       0.95106317      -3.07270177
H       -2.20084893      -0.93352196      -1.39044069
H       -1.72356320      -0.20936906      -2.94270743
H       -2.12612794       0.83450708      -1.56068504
H        0.55991780      -0.50118962       4.17480592
H        0.64018617       1.23274089       4.00820205
H        1.84853201       0.21866476       3.16211311
H       -1.19066635       0.30023684       2.54540360
C        0.81061475       0.29637217       3.47061838
C       -0.11489283       0.22813768       2.31490694
O        0.24248180       0.10028728       1.15849035
21
Properties=species:S:1:pos:R:3 charge=1 charge_a=1 charge_b=0 selection_a=1-14 selection_b=15-21 scaling=1.0 benchmark_Eint=-19.996 benchmark_unit=kcal/mol group=NHk-O pbc="F F F"
C        0.40729788      -1.42568942      -1.75313435
N       -0.25166894      -0.12595046      -1.43021399
H       -0.22560942      -0.02755940      -0.39590091
C        0.51105364       1.02874989      -1.98944112
C       -1.67869424      -0.10723311      -1.86228419
H        1.41977204      -1.40913516      -1.36356503
H        0.42149169      -1.55739911      -2.83119223
H       -0.15370923      -2.22935484      -1.28714648
H        1.52171496       1.00207758      -1.59573758
H        0.02298432       1.95051278      -1.68961331
H        0.52754409       0.95106317      -3.07270177
H       -2.20084893      -0.93352196      -1.39044069
H       -1.72356320      -0.20936906      -2.94270743
H       -2.12612794       0.83450708      -1.56068504
H        0.58455418      -0.49446085       4.25661599
H        0.66482255       1.23946967       4.09001211
H        1.87316839       0.22539354       3.24392318
H       -1.16602997       0.30696562       2.62721367
C        0.83525113       0.30310094       3.55242845
C       -0.09025645       0.23486645       2.39671700
O        0.26711818       0.10701605       1.24030042
21
Properties=species:S:1:pos:R:3 charge=1 charge_a=1 charge_b=0 selection_a=1-14 selection_b=15-21 scaling=1.05 benchmark_Eint=-19.87 benchmark_unit=kcal/mol group=NHk-O pbc="F F F"
C        0.40729788      -1.42568942      -1.75313435
N       -0.25166894      -0.12595046      -1.43021399
H       -0.22560942      -0.02755940      -0.39590091
C        0.51105364       1.02874989      -1.98944112
C       -1.67869424      -0.10723311      -1.86228419
H        1.41977204      -1.40913516      -1.36356503
H        0.42149169      -1.55739911      -2.83119223
H       -0.15370923      -2.22935484      -1.28714648
H        1.52171496       1.00207758      -1.59573758
H        0.02298432       1.95051278      -1.68961331
H        0.52754409       0.95106317      -3.07270177
H       -2.20084893      -0.93352196      -1.39044069
H       -1.72356320      -0.20936906      -2.94270743
H       -2.12612794       0.83450708      -1.56068504
H        0.60919056      -0.48773208       4.33842605
H        0.68945893       1.24619844       4.17182218
H        1.89780477       0.23212231       3.32573325
H       -1.14139359       0.31369439       2.70902373
C        0.85988751       0.30982971       3.63423852
C       -0.06562007       0.24159523       2.47852707
O        0.29175456       0.11374482       1.32211048
21
Properties=species:S:1:pos:R:3 charge=1 charge_a=1 charge_b=0 selection_a=1-14 selection_b=15-21 scaling=1.1 benchmark_Eint=-19.432 benchmark_unit=kcal/mol group=NHk-O pbc="F F F"
C        0.40729788      -1.42568942      -1.75313435
N       -0.25166894      -0.12595046      -1.43021399
H       -0.22560942      -0.02755940      -0.39590091
C        0.51105364       1.02874989      -1.98944112
C       -1.67869424      -0.10723311      -1.86228419
H        1.41977204      -1.40913516      -1.36356503
H        0.42149169      -1.55739911      -2.83119223
H       -0.15370923      -2.22935484      -1.28714648
H        1.52171496       1.00207758      -1.59573758
H        0.02298432       1.95051278      -1.68961331
H        0.52754409       0.95106317      -3.07270177
H       -2.20084893      -0.93352196      -1.39044069
H       -1.72356320      -0.20936906      -2.94270743
H       -2.12612794       0.83450708      -1.56068504
H        0.63382694      -0.48100331       4.42023612
H        0.71409531       1.25292721       4.25363225
H        1.92244115       0.23885108       3.40754331
H       -1.11675721       0.32042316       2.79083380
C        0.88452389       0.31655849       3.71604858
C       -0.04098369       0.24832400       2.56033714
O        0.31639094       0.12047360       1.40392055
21
Properties=species:S:1:pos:R:3 charge=1 charge_a=1 charge_b=0 selection_a=1-14 selection_b=15-21 scaling=1.25 benchmark_Eint=-17.234 benchmark_unit=kcal/mol group=NHk-O pbc="F F F"
C        0.40729788      -1.42568942      -1.75313435
N       -0.25166894      -0.12595046      -1.43021399
H       -0.22560942      -0.02755940      -0.39590091
C        0.51105364       1.02874989      -1.98944112
C       -1.67869424      -0.10723311      -1.86228419
H        1.41977204      -1.40913516      -1.36356503
H        0.42149169      -1.55739911      -2.83119223
H       -0.15370923      -2.22935484      -1.28714648
H        1.52171496       1.00207758      -1.59573758
H        0.02298432       1.95051278      -1.68961331
H        0.52754409       0.95106317      -3.07270177
H       -2.20084893      -0.93352196      -1.39044069
H       -1.72356320      -0.20936906      -2.94270743
H       -2.12612794       0.83450708      -1.56068504
H        0.70773608      -0.46081699       4.66566632
H        0.78800445       1.27311353       4.49906244
H        1.99635029       0.25903740       3.65297351
H       -1.04284807       0.34060948       3.03626400
C        0.95843303       0.33674480       3.96147878
C        0.03292545       0.26851032       2.80576734
O        0.39030008       0.14065991       1.64935075
21
Properties=species:S:1:pos:R:3 charge=1 charge_a=1 charge_b=0 selection_a=1-14 selection_b=15-21 scaling=1.5 benchmark_Eint=-13.288 benchmark_unit=kcal/mol group=NHk-O pbc="F F F"
C        0.40729788      -1.42568942      -1.75313435
N       -0.25166894      -0.12595046      -1.43021399
H       -0.22560942      -0.02755940      -0.39590091
C        0.51105364       1.02874989      -1.98944112
C       -1.67869424      -0.10723311      -1.86228419
H        1.41977204      -1.40913516      -1.36356503
H        0.42149169      -1.55739911      -2.83119223
H       -0.15370923      -2.22935484      -1.28714648
H        1.52171496       1.00207758      -1.59573758
H        0.02298432       1.95051278      -1.68961331
H        0.52754409       0.95106317      -3.07270177
H       -2.20084893      -0.93352196      -1.39044069
H       -1.72356320      -0.20936906      -2.94270743
H       -2.12612794       0.83450708      -1.56068504
H        0.83091798      -0.42717312       5.07471665
H        0.91118635       1.30675739       4.90811278
H        2.11953219       0.29268126       4.06202384
H       -0.91966617       0.37425334       3.44531433
C        1.08161493       0.37038867       4.37052911
C        0.15610735       0.30215418       3.21481767
O        0.51348198       0.17430378       2.05840108
21
Properties=species:S:1:pos:R:3 charge=1 charge_a=1 charge_b=0 selection_a=1-14 selection_b=15-21 scaling=2.0 benchmark_Eint=-8.228 benchmark_unit=kcal/mol group=NHk-O pbc="F F F"
C        0.40729788      -1.42568942      -1.75313435
N       -0.25166894      -0.12595046      -1.43021399
H       -0.22560942      -0.02755940      -0.39590091
C        0.51105364       1.02874989      -1.98944112
C       -1.67869424      -0.10723311      -1.86228419
H        1.41977204      -1.40913516      -1.36356503
H        0.42149169      -1.55739911      -2.83119223
H       -0.15370923      -2.22935484      -1.28714648
H        1.52171496       1.00207758      -1.59573758
H        0.02298432       1.95051278      -1.68961331
H        0.52754409       0.95106317      -3.07270177
H       -2.20084893      -0.93352196      -1.39044069
H       -1.72356320      -0.20936906      -2.94270743
H       -2.12612794       0.83450708      -1.56068504
H        1.07728178      -0.35988540       5.89281731
H        1.15755015       1.37404512       5.72621344
H        2.36589598       0.35996899       4.88012450
H       -0.67330237       0.44154107       4.26341499
C        1.32797873       0.43767639       5.18862977
C        0.40247115       0.36944191       4.03291833
O        0.75984578       0.24159150       2.87650174
23
Properties=species:S:1:pos:R:3 charge=1 charge_a=1 charge_b=0 selection_a=1-14 selection_b=15-23 scaling=0.8 benchmark_Eint=-20.109 benchmark_unit=kcal/mol group=NHk-O pbc="F F F"
C        1.17636324      -1.20223127      -1.91994701
N        0.09042871      -0.20662369      -1.71133703
H       -0.01251328      -0.04826885      -0.67597510
C        0.42667645       1.11293157      -2.31585679
C       -1.22395524      -0.71303709      -2.19749993
H        2.09907794      -0.81056168      -1.50340328
H        1.29987583      -1.38289358      -2.98417892
H        0.90842344      -2.12665939      -1.41803179
H        1.36343957       1.46397721      -1.89498285
H       -0.36557722       1.81577399      -2.08031589
H        0.52121087       1.00103825      -3.39247318
H       -1.44994439      -1.64575044      -1.69080731
H       -1.17154099      -0.87486355      -3.27064537
H       -1.98734492       0.02217972      -1.96576227
H       -0.55040037       0.70588501       3.63341023
H       -1.56761180       1.35687645       2.39638266
H        0.97459158      -1.66836456       1.79739112
H        2.01701120      -0.25262103       1.69207131
H        1.24520370      -0.66528604       3.22940788
O       -0.36081438       0.30640258       0.51404834
C       -0.06085285       0.18345552       1.70954634
N       -0.77645863       0.79232340       2.65919079
C        1.11247547      -0.64806065       2.15147414
23
Properties=species:S:1:pos:R:3 charge=1 charge_a=1 charge_b=0 selection_a=1-14 selection_b=15-23 scaling=0.85 benchmark_Eint=-24.08 benchmark_unit=kcal/mol group=NHk-O pbc="F F F"
C        1.17636324      -1.20223127      -1.91994701
N        0.09042871      -0.20662369      -1.71133703
H       -0.01251328      -0.04826885      -0.67597510
C        0.42667645       1.11293157      -2.31585679
C       -1.22395524      -0.71303709      -2.19749993
H        2.09907794      -0.81056168      -1.50340328
H        1.29987583      -1.38289358      -2.98417892
H        0.90842344      -2.12665939      -1.41803179
H        1.36343957       1.46397721      -1.89498285
H       -0.36557722       1.81577399      -2.08031589
H        0.52121087       1.00103825      -3.39247318
H       -1.44994439      -1.64575044      -1.69080731
H       -1.17154099      -0.87486355      -3.27064537
H       -1.98734492       0.02217972      -1.96576227
H       -0.57216919       0.72805197       3.70778670
H       -1.58938062       1.37904342       2.47075913
H        0.95282276      -1.64619759       1.87176759
H        1.99524238      -0.23045407       1.76644778
H        1.22343488      -0.64311907       3.30378434
O       -0.38258320       0.32856954       0.58842480
C       -0.08262167       0.20562249       1.78392281
N       -0.79822744       0.81449036       2.73356726
C        1.09070665      -0.62589369       2.22585060
23
Properties=species:S:1:pos:R:3 charge=1 charge_a=1 charge_b=0 selection_a=1-14 selection_b=15-23 scaling=0.9 benchmark_Eint=-26.434 benchmark_unit=kcal/mol group=NHk-O pbc="F F F"
C        1.17636324      -1.20223127      -1.91994701
N        0.09042871      -0.20662369      -1.71133703
H       -0.01251328      -0.04826885      -0.67597510
C        0.42667645       1.11293157      -2.31585679
C       -1.22395524      -0.71303709      -2.19749993
H        2.09907794      -0.81056168      -1.50340328
H        1.29987583      -1.38289358      -2.98417892
H        0.90842344      -2.12665939      -1.41803179
H        1.36343957       1.46397721      -1.89498285
H       -0.36557722       1.81577399      -2.08031589
H        0.52121087       1.00103825      -3.39247318
H       -1.44994439      -1.64575044      -1.69080731
H       -1.17154099      -0.87486355      -3.27064537
H       -1.98734492       0.02217972      -1.96576227
H       -0.59393801       0.75021894       3.78216316
H       -1.61114943       1.40121038       2.54513559
H        0.93105395      -1.62403063       1.94614405
H        1.97347356      -0.20828711       1.84082424
H        1.20166606      -0.62095211       3.37816081
O       -0.40435201       0.35073650       0.66280127
C       -0.10439048       0.22778945       1.85829927
N       -0.81999626       0.83665733       2.80794372
C        1.06893783      -0.60372672       2.30022707
23
Properties=species:S:1:pos:R:3 charge=1 charge_a=1 charge_b=0 selection_a=1-14 selection_b=15-23 scaling=0.95 benchmark_Eint=-27.637 benchmark_unit=kcal/mol group=NHk-O pbc="F F F"
C        1.17636324      -1.20223127      -1.91994701
N        0.09042871      -0.20662369      -1.71133703
H       -0.01251328      -0.04826885      -0.67597510
C        0.42667645       1.11293157      -2.31585679
C       -1.22395524      -0.71303709      -2.19749993
H        2.09907794      -0.81056168      -1.50340328
H        1.29987583      -1.38289358      -2.98417892
H        0.90842344      -2.12665939      -1.41803179
H        1.36343957       1.46397721      -1.89498285
H       -0.36557722       1.81577399      -2.08031589
H        0.52121087       1.00103825      -3.39247318
H       -1.44994439      -1.64575044      -1.69080731
H       -1.17154099      -0.87486355      -3.27064537
H       -1.98734492       0.02217972      -1.96576227
H       -0.61570683       0.77238590       3.85653963
H       -1.63291825       1.42337735       2.61951206
H        0.90928513      -1.60186366       2.02052052
H        1.95170474      -0.18612014       1.91520071
H        1.17989724      -0.59878515       3.45253727
O       -0.42612083       0.37290347       0.73717773
C       -0.12615930       0.24995642       1.93267574
N       -0.84176508       0.85882429       2.88232019
C        1.04716901      -0.58155976       2.37460353
23
Properties=species:S:1:pos:R:3 charge=1 charge_a=1 charge_b=0 selection_a=1-14 selection_b=15-23 scaling=1.0 benchmark_Eint=-28.028 benchmark_unit=kcal/mol group=NHk-O pbc="F F F"
C        1.17636324      -1.20223127      -1.91994701
N        0.09042871      -0.20662369      -1.71133703
H       -0.01251328      -0.04826885      -0.67597510
C        0.42667645       1.11293157      -2.31585679
C       -1.22395524      -0.71303709      -2.19749993
H        2.09907794      -0.81056168      -1.50340328
H        1.29987583      -1.38289358      -2.98417892
H        0.90842344      -2.12665939      -1.41803179
H        1.36343957       1.46397721      -1.89498285
H       -0.36557722       1.81577399      -2.08031589
H        0.52121087       1.00103825      -3.39247318
H       -1.44994439      -1.64575044      -1.69080731
H       -1.17154099      -0.87486355      -3.27064537
H       -1.98734492       0.02217972      -1.96576227
H       -0.63747564       0.79455286       3.93091609
H       -1.65468707       1.44554431       2.69388852
H        0.88751631      -1.57969670       2.09489698
H        1.92993593      -0.16395318       1.98957717
H        1.15812842      -0.57661818       3.52691374
O       -0.44788965       0.39507043       0.81155420
C       -0.14792812       0.27212338       2.00705220
N       -0.86353390       0.88099125       2.95669665
C        1.02540020      -0.55939280       2.44898000
23
Properties=species:S:1:pos:R:3 charge=1 charge_a=1 charge_b=0 selection_a=1-14 selection_b=15-23 scaling=1.05 benchmark_Eint=-27.856 benchmark_unit=kcal/mol group=NHk-O pbc="F F F"
C        1.17636324      -1.20223127      -1.91994701
N        0.09042871      -0.20662369      -1.71133703
H       -0.01251328      -0.04826885      -0.67597510
C        0.42667645       1.11293157      -2.31585679
C       -1.22395524      -0.71303709      -2.19749993
H        2.09907794      -0.81056168      -1.50340328
H        1.29987583      -1.38289358      -2.98417892
H        0.90842344      -2.12665939      -1.41803179
H        1.36343957       1.46397721      -1.89498285
H       -0.36557722       1.81577399      -2.08031589
H        0.52121087       1.00103825      -3.39247318
H       -1.44994439      -1.64575044      -1.69080731
H       -1.17154099      -0.87486355      -3.27064537
H       -1.98734492       0.02217972      -1.96576227
H       -0.65924446       0.81671983       4.00529256
H       -1.67645589       1.46771127       2.76826499
H        0.86574749      -1.55752974       2.16927345
H        1.90816711      -0.14178621       2.06395364
H        1.13635960      -0.55445122       3.60129020
O       -0.46965847       0.41723740       0.88593066
C       -0.16969694       0.29429034       2.08142867
N       -0.88530272       0.90315822       3.03107312
C        1.00363138      -0.53722583       2.52335646
23
Properties=species:S:1:pos:R:3 charge=1 charge_a=1 charge_b=0 selection_a=1-14 selection_b=15-23 scaling=1.1 benchmark_Eint=-27.301 benchmark_unit=kcal/mol group=NHk-O pbc="F F F"
C        1.17636324      -1.20223127      -1.91994701
N        0.09042871      -0.20662369      -1.71133703
H       -0.01251328      -0.04826885      -0.67597510
C        0.42667645       1.11293157      -2.31585679
C       -1.22395524      -0.71303709      -2.19749993
H        2.09907794      -0.81056168      -1.50340328
H        1.29987583      -1.38289358      -2.98417892
H        0.90842344      -2.12665939      -1.41803179
H        1.36343957       1.46397721      -1.89498285
H       -0.36557722       1.81577399      -2.08031589
H        0.52121087       1.00103825      -3.39247318
H       -1.44994439      -1.64575044      -1.69080731
H       -1.17154099      -0.87486355      -3.27064537
H       -1.98734492       0.02217972      -1.96576227
H       -0.68101328       0.83888679       4.07966902
H       -1.69822471       1.48987824       2.84264145
H        0.84397867      -1.53536277       2.24364991
H        1.88639829      -0.11961925       2.13833010
H        1.11459079      -0.53228425       3.67566667
O       -0.49142729       0.43940436       0.96030713
C       -0.19146576       0.31645731       2.15580513
N       -0.90707154       0.92532518       3.10544958
C        0.98186256      -0.51505887       2.59773293
23
Properties=species:S:1:pos:R:3 charge=1 charge_a=1 charge_b=0 selection_a=1-14 selection_b=15-23 scaling=1.25 benchmark_Eint=-24.484 benchmark_unit=kcal/mol group=NHk-O pbc="F F F"
C        1.17636324      -1.20223127      -1.91994701
N        0.09042871      -0.20662369      -1.71133703
H       -0.01251328      -0.04826885      -0.67597510
C        0.42667645       1.11293157      -2.31585679
C       -1.22395524      -0.71303709      -2.19749993
H        2.09907794      -0.81056168      -1.50340328
H        1.29987583      -1.38289358      -2.98417892
H        0.90842344      -2.12665939      -1.41803179
H        1.36343957       1.46397721      -1.89498285
H       -0.36557722       1.81577399      -2.08031589
H        0.52121087       1.00103825      -3.39247318
H       -1.44994439      -1.64575044      -1.69080731
H       -1.17154099      -0.87486355      -3.27064537
H       -1.98734492       0.02217972      -1.96576227
H       -0.74631974       0.90538768       4.30279841
H       -1.76353116       1.55637913       3.06577084
H        0.77867222      -1.46886188       2.46677930
H        1.82109183      -0.05311836       2.36145950
H        1.04928433      -0.46578336       3.89879606
O       -0.55673374       0.50590525       1.18343652
C       -0.25677221       0.38295820       2.37893453
N       -0.97237799       0.99182607       3.32857897
C        0.91655610      -0.44855798       2.82086232
23
Properties=species:S:1:pos:R:3 charge=1 charge_a=1 charge_b=0 selection_a=1-14 selection_b=15-23 scaling=1.5 benchmark_Eint=-19.225 benchmark_unit=kcal/mol group=NHk-O pbc="F F F"
C        1.17636324      -1.20223127      -1.91994701
N        0.09042871      -0.20662369      -1.71133703
H       -0.01251328      -0.04826885      -0.67597510
C        0.42667645       1.11293157      -2.31585679
C       -1.22395524      -0.71303709      -2.19749993
H        2.09907794      -0.81056168      -1.50340328
H        1.29987583      -1.38289358      -2.98417892
H        0.90842344      -2.12665939      -1.41803179
H        1.36343957       1.46397721      -1.89498285
H       -0.36557722       1.81577399      -2.08031589
H        0.52121087       1.00103825      -3.39247318
H       -1.44994439      -1.64575044      -1.69080731
H       -1.17154099      -0.87486355      -3.27064537
H       -1.98734492       0.02217972      -1.96576227
H       -0.85516383       1.01622250       4.67468074
H       -1.87237525       1.66721395       3.43765317
H        0.66982812      -1.35802706       2.83866163
H        1.71224774       0.05771646       2.73334182
H        0.94044024      -0.35494854       4.27067838
O       -0.66557783       0.61674007       1.55531884
C       -0.36561630       0.49379302       2.75081685
N       -1.08122208       1.10266089       3.70046130
C        0.80771201      -0.33772316       3.19274464
23
Properties=species:S:1:pos:R:3 charge=1 charge_a=1 charge_b=0 selection_a=1-14 selection_b=15-23 scaling=2.0 benchmark_Eint=-12.093 benchmark_unit=kcal/mol group=NHk-O pbc="F F F"
C        1.17636324      -1.20223127      -1.91994701
N        0.09042871      -0.20662369      -1.71133703
H       -0.01251328      -0.04826885      -0.67597510
C        0.42667645       1.11293157      -2.31585679
C       -1.22395524      -0.71303709      -2.19749993
H        2.09907794      -0.81056168      -1.50340328
H        1.29987583      -1.38289358      -2.98417892
H        0.90842344      -2.12665939      -1.41803179
H        1.36343957       1.46397721      -1.89498285
H       -0.36557722       1.81577399      -2.08031589
H        0.52121087       1.00103825      -3.39247318
H       -1.44994439      -1.64575044      -1.69080731
H       -1.17154099      -0.87486355      -3.27064537
H       -1.98734492       0.02217972      -1.96576227
H       -1.07285201       1.23789214       5.41844538
H       -2.09006344       1.88888359       4.18141781
H        0.45213994      -1.13635742       3.58242627
H        1.49455956       0.27938610       3.47710647
H        0.72275206      -0.13327890       5.01444303
O       -0.88326602       0.83840971       2.29908349
C       -0.58330449       0.71546266       3.49458150
N       -1.29891027       1.32433053       4.44422594
C        0.59002383      -0.11605352       3.93650929
22
Properties=species:S:1:pos:R:3 charge=1 charge_a=1 charge_b=0 selection_a=1-14 selection_b=15-22 scaling=0.8 benchmark_Eint=-13.088 benchmark_unit=kcal/mol group=NHk-O pbc="F F F"
C        0.92904851      -1.19092956      -2.14070391
N       -0.10701151      -0.18347754      -1.77586734
H       -0.07478114      -0.05050884      -0.74344956
C        0.17492020       1.14631687      -2.39100416
C       -1.48166161      -0.66069267      -2.10590519
H        1.90300814      -0.82116223      -1.83599494
H        0.91243637      -1.34576873      -3.21569510
H        0.70946123      -2.12315657      -1.62992126
H        1.16237318       1.47401397      -2.08229509
H       -0.57158794       1.85480641      -2.04760893
H        0.13412235       1.05333225      -3.47247637
H       -1.65817426      -1.60269633      -1.59678289
H       -1.56198701      -0.79679566      -3.18057408
H       -2.19859290       0.07999641      -1.76749733
H       -1.11205514       1.35536756       2.39726398
H        1.67281536      -1.28450111       1.24780248
H        2.02677994      -0.19814997       2.61342547
H        0.87673963      -1.50117466       2.82588212
O       -0.24797441       0.30360403       0.54675089
C        0.14483455       0.13683943       1.69169401
O       -0.40128820       0.77836708       2.71404115
C        1.25321422      -0.77431610       2.10736336
22
Properties=species:S:1:pos:R:3 charge=1 charge_a=1 charge_b=0 selection_a=1-14 selection_b=15-22 scaling=0.85 benchmark_Eint=-16.661 benchmark_unit=kcal/mol group=NHk-O pbc="F F F"
C        0.92904851      -1.19092956      -2.14070391
N       -0.10701151      -0.18347754      -1.77586734
H       -0.07478114      -0.05050884      -0.74344956
C        0.17492020       1.14631687      -2.39100416
C       -1.48166161      -0.66069267      -2.10590519
H        1.90300814      -0.82116223      -1.83599494
H        0.91243637      -1.34576873      -3.21569510
H        0.70946123      -2.12315657      -1.62992126
H        1.16237318       1.47401397      -2.08229509
H       -0.57158794       1.85480641      -2.04760893
H        0.13412235       1.05333225      -3.47247637
H       -1.65817426      -1.60269633      -1.59678289
H       -1.56198701      -0.79679566      -3.18057408
H       -2.19859290       0.07999641      -1.76749733
H       -1.12287972       1.37749962       2.47790151
H        1.66199078      -1.26236906       1.32844000
H        2.01595536      -0.17601791       2.69406299
H        0.86591505      -1.47904261       2.90651964
O       -0.25879899       0.32573609       0.62738842
C        0.13400997       0.15897149       1.77233154
O       -0.41211278       0.80049913       2.79467868
C        1.24238964      -0.75218405       2.18800089
22
Properties=species:S:1:pos:R:3 charge=1 charge_a=1 charge_b=0 selection_a=1-14 selection_b=15-22 scaling=0.9 benchmark_Eint=-18.771 benchmark_unit=kcal/mol group=NHk-O pbc="F F F"
C        0.92904851      -1.19092956      -2.14070391
N       -0.10701151      -0.18347754      -1.77586734
H       -0.07478114      -0.05050884      -0.74344956
C        0.17492020       1.14631687      -2.39100416
C       -1.48166161      -0.66069267      -2.10590519
H        1.90300814      -0.82116223      -1.83599494
H        0.91243637      -1.34576873      -3.21569510
H        0.70946123      -2.12315657      -1.62992126
H        1.16237318       1.47401397      -2.08229509
H       -0.57158794       1.85480641      -2.04760893
H        0.13412235       1.05333225      -3.47247637
H       -1.65817426      -1.60269633      -1.59678289
H       -1.56198701      -0.79679566      -3.18057408
H       -2.19859290       0.07999641      -1.76749733
H       -1.13370430       1.39963167       2.55853903
H        1.65116620      -1.24023700       1.40907753
H        2.00513078      -0.15388586       2.77470052
H        0.85509047      -1.45691055       2.98715717
O       -0.26962357       0.34786814       0.70802595
C        0.12318539       0.18110354       1.85296907
O       -0.42293736       0.82263118       2.87531621
C        1.23156506      -0.73005199       2.26863842
22
Properties=species:S:1:pos:R:3 charge=1 charge_a=1 charge_b=0 selection_a=1-14 selection_b=15-22 scaling=0.95 benchmark_Eint=-19.851 benchmark_unit=kcal/mol group=NHk-O pbc="F F F"
C        0.92904851      -1.19092956      -2.14070391
N       -0.10701151      -0.18347754      -1.77586734
H       -0.07478114      -0.05050884      -0.74344956
C        0.17492020       1.14631687      -2.39100416
C       -1.48166161      -0.66069267      -2.10590519
H        1.90300814      -0.82116223      -1.83599494
H        0.91243637      -1.34576873      -3.21569510
H        0.70946123      -2.12315657      -1.62992126
H        1.16237318       1.47401397      -2.08229509
H       -0.57158794       1.85480641      -2.04760893
H        0.13412235       1.05333225      -3.47247637
H       -1.65817426      -1.60269633      -1.59678289
H       -1.56198701      -0.79679566      -3.18057408
H       -2.19859290       0.07999641      -1.76749733
H       -1.14452888       1.42176372       2.63917656
H        1.64034162      -1.21810495       1.48971506
H        1.99430620      -0.13175381       2.85533805
H        0.84426589      -1.43477850       3.06779470
O       -0.28044815       0.37000020       0.78866347
C        0.11236081       0.20323560       1.93360659
O       -0.43376194       0.84476324       2.95595374
C        1.22074048      -0.70791994       2.34927595
22
Properties=species:S:1:pos:R:3 charge=1 charge_a=1 charge_b=0 selection_a=1-14 selection_b=15-22 scaling=1.0 benchmark_Eint=-20.213 benchmark_unit=kcal/mol group=NHk-O pbc="F F F"
C        0.92904851      -1.19092956      -2.14070391
N       -0.10701151      -0.18347754      -1.77586734
H       -0.07478114      -0.05050884      -0.74344956
C        0.17492020       1.14631687      -2.39100416
C       -1.48166161      -0.66069267      -2.10590519
H        1.90300814      -0.82116223      -1.83599494
H        0.91243637      -1.34576873      -3.21569510
H        0.70946123      -2.12315657      -1.62992126
H        1.16237318       1.47401397      -2.08229509
H       -0.57158794       1.85480641      -2.04760893
H        0.13412235       1.05333225      -3.47247637
H       -1.65817426      -1.60269633      -1.59678289
H       -1.56198701      -0.79679566      -3.18057408
H       -2.19859290       0.07999641      -1.76749733
H       -1.15535346       1.44389578       2.71981409
H        1.62951704      -1.19597289       1.57035259
H        1.98348162      -0.10962175       2.93597558
H        0.83344131      -1.41264644       3.14843223
O       -0.29127273       0.39213225       0.86930100
C        0.10153623       0.22536765       2.01424412
O       -0.44458652       0.86689529       3.03659126
C        1.20991590      -0.68578788       2.42991348
22
Properties=species:S:1:pos:R:3 charge=1 charge_a=1 charge_b=0 selection_a=1-14 selection_b=15-22 scaling=1.05 benchmark_Eint=-20.084 benchmark_unit=kcal/mol group=NHk-O pbc="F F F"
C        0.92904851      -1.19092956      -2.14070391
N       -0.10701151      -0.18347754      -1.77586734
H       -0.07478114      -0.05050884      -0.74344956
C        0.17492020       1.14631687      -2.39100416
C       -1.48166161      -0.66069267      -2.10590519
H        1.90300814      -0.82116223      -1.83599494
H        0.91243637      -1.34576873      -3.21569510
H        0.70946123      -2.12315657      -1.62992126
H        1.16237318       1.47401397      -2.08229509
H       -0.57158794       1.85480641      -2.04760893
H        0.13412235       1.05333225      -3.47247637
H       -1.65817426      -1.60269633      -1.59678289
H       -1.56198701      -0.79679566      -3.18057408
H       -2.19859290       0.07999641      -1.76749733
H       -1.16617804       1.46602783       2.80045162
H        1.61869246      -1.17384084       1.65099012
H        1.97265704      -0.08748970       3.01661310
H        0.82261673      -1.39051439       3.22906975
O       -0.30209731       0.41426431       0.94993853
C        0.09071165       0.24749971       2.09488165
O       -0.45541110       0.88902735       3.11722879
C        1.19909132      -0.66365583       2.51055100
22
Properties=species:S:1:pos:R:3 charge=1 charge_a=1 charge_b=0 selection_a=1-14 selection_b=15-22 scaling=1.1 benchmark_Eint=-19.629 benchmark_unit=kcal/mol group=NHk-O pbc="F F F"
C        0.92904851      -1.19092956      -2.14070391
N       -0.10701151      -0.18347754      -1.77586734
H       -0.07478114      -0.05050884      -0.74344956
C        0.17492020       1.14631687      -2.39100416
C       -1.48166161      -0.66069267      -2.10590519
H        1.90300814      -0.82116223      -1.83599494
H        0.91243637      -1.34576873      -3.21569510
H        0.70946123      -2.12315657      -1.62992126
H        1.16237318       1.47401397      -2.08229509
H       -0.57158794       1.85480641      -2.04760893
H        0.13412235       1.05333225      -3.47247637
H       -1.65817426      -1.60269633      -1.59678289
H       -1.56198701      -0.79679566      -3.18057408
H       -2.19859290       0.07999641      -1.76749733
H       -1.17700262       1.48815989       2.88108915
H        1.60786788      -1.15170878       1.73162764
H        1.96183246      -0.06535764       3.09725063
H        0.81179215      -1.36838233       3.30970728
O       -0.31292189       0.43639636       1.03057606
C        0.07988707       0.26963176       2.17551918
O       -0.46623568       0.91115940       3.19786632
C        1.18826674      -0.64152377       2.59118853
22
Properties=species:S:1:pos:R:3 charge=1 charge_a=1 charge_b=0 selection_a=1-14 selection_b=15-22 scaling=1.25 benchmark_Eint=-17.328 benchmark_unit=kcal/mol group=NHk-O pbc="F F F"
C        0.92904851      -1.19092956      -2.14070391
N       -0.10701151      -0.18347754      -1.77586734
H       -0.07478114      -0.05050884      -0.74344956
C        0.17492020       1.14631687      -2.39100416
C       -1.48166161      -0.66069267      -2.10590519
H        1.90300814      -0.82116223      -1.83599494
H        0.91243637      -1.34576873      -3.21569510
H        0.70946123      -2.12315657      -1.62992126
H        1.16237318       1.47401397      -2.08229509
H       -0.57158794       1.85480641      -2.04760893
H        0.13412235       1.05333225      -3.47247637
H       -1.65817426      -1.60269633      -1.59678289
H       -1.56198701      -0.79679566      -3.18057408
H       -2.19859290       0.07999641      -1.76749733
H       -1.20947636       1.55455605       3.12300173
H        1.57539414      -1.08531262       1.97354023
H        1.92935873       0.00103852       3.33916322
H        0.77931841      -1.30198617       3.55161987
O       -0.34539563       0.50279252       1.27248864
C        0.04741333       0.33602792       2.41743176
O       -0.49870942       0.97755557       3.43977890
C        1.15579301      -0.57512761       2.83310111
22
Properties=species:S:1:pos:R:3 charge=1 charge_a=1 charge_b=0 selection_a=1-14 selection_b=15-22 scaling=1.5 benchmark_Eint=-13.169 benchmark_unit=kcal/mol group=NHk-O pbc="F F F"
C        0.92904851      -1.19092956      -2.14070391
N       -0.10701151      -0.18347754      -1.77586734
H       -0.07478114      -0.05050884      -0.74344956
C        0.17492020       1.14631687      -2.39100416
C       -1.48166161      -0.66069267      -2.10590519
H        1.90300814      -0.82116223      -1.83599494
H        0.91243637      -1.34576873      -3.21569510
H        0.70946123      -2.12315657      -1.62992126
H        1.16237318       1.47401397      -2.08229509
H       -0.57158794       1.85480641      -2.04760893
H        0.13412235       1.05333225      -3.47247637
H       -1.65817426      -1.60269633      -1.59678289
H       -1.56198701      -0.79679566      -3.18057408
H       -2.19859290       0.07999641      -1.76749733
H       -1.26359925       1.66521632       3.52618937
H        1.52127125      -0.97465235       2.37672787
H        1.87523583       0.11169879       3.74235086
H        0.72519552      -1.19132590       3.95480751
O       -0.39951852       0.61345280       1.67567628
C       -0.00670956       0.44668820       2.82061940
O       -0.55283231       1.08821584       3.84296654
C        1.10167011      -0.46446734       3.23628875
22
Properties=species:S:1:pos:R:3 charge=1 charge_a=1 charge_b=0 selection_a=1-14 selection_b=15-22 scaling=2.0 benchmark_Eint=-7.844 benchmark_unit=kcal/mol group=NHk-O pbc="F F F"
C        0.92904851      -1.19092956      -2.14070391
N       -0.10701151      -0.18347754      -1.77586734
H       -0.07478114      -0.05050884      -0.74344956
C        0.17492020       1.14631687      -2.39100416
C       -1.48166161      -0.66069267      -2.10590519
H        1.90300814      -0.82116223      -1.83599494
H        0.91243637      -1.34576873      -3.21569510
H        0.70946123      -2.12315657      -1.62992126
H        1.16237318       1.47401397      -2.08229509
H       -0.57158794       1.85480641      -2.04760893
H        0.13412235       1.05333225      -3.47247637
H       -1.65817426      -1.60269633      -1.59678289
H       -1.56198701      -0.79679566      -3.18057408
H       -2.19859290       0.07999641      -1.76749733
H       -1.37184505       1.88653687       4.33256465
H        1.41302545      -0.75333180       3.18310315
H        1.76699004       0.33301934       4.54872614
H        0.61694972      -0.97000535       4.76118279
O       -0.50776432       0.83477334       2.48205156
C       -0.11495536       0.66800874       3.62699468
O       -0.66107811       1.30953638       4.64934182
C        0.99342431      -0.24314679       4.04266403
20
Properties=species:S:1:pos:R:3 charge=1 charge_a=1 charge_b=0 selection_a=1-14 selection_b=15-20 scaling=0.8 benchmark_Eint=-9.783 benchmark_unit=kcal/mol group=NHk-O pbc="F F F"
C        0.41411610      -1.27837901      -2.19358690
N       -0.15218562      -0.19286232      -1.33858845
H        0.17119450      -0.36152240      -0.36652802
C        0.35780449       1.15171070      -1.74173611
C       -1.64503964      -0.22923859      -1.31503914
H        1.49730692      -1.24231460      -2.13653478
H        0.08964158      -1.12451981      -3.21855835
H        0.05610879      -2.23603448      -1.82946547
H        1.44206337       1.14487271      -1.69394777
H       -0.03950596       1.89440084      -1.05778221
H        0.03184268       1.36238236      -2.75611244
H       -1.96710865      -1.20573599      -0.96766013
H       -2.01755873      -0.05064384      -2.31949214
H       -2.00165804       0.54149747      -0.63974150
H       -0.78201166       0.63260662       3.43175484
H        0.63453852       1.60907415       3.12998246
H        0.83702767      -0.17796378       3.35340349
C        0.20595541       0.61748553       2.96503929
N       -0.01741843       0.49902938       1.53314850
O        0.52740536      -0.45091429       1.01650472
20
Properties=species:S:1:pos:R:3 charge=1 charge_a=1 charge_b=0 selection_a=1-14 selection_b=15-20 scaling=0.85 benchmark_Eint=-12.947 benchmark_unit=kcal/mol group=NHk-O pbc="F F F"
C        0.41411610      -1.27837901      -2.19358690
N       -0.15218562      -0.19286232      -1.33858845
H        0.17119450      -0.36152240      -0.36652802
C        0.35780449       1.15171070      -1.74173611
C       -1.64503964      -0.22923859      -1.31503914
H        1.49730692      -1.24231460      -2.13653478
H        0.08964158      -1.12451981      -3.21855835
H        0.05610879      -2.23603448      -1.82946547
H        1.44206337       1.14487271      -1.69394777
H       -0.03950596       1.89440084      -1.05778221
H        0.03184268       1.36238236      -2.75611244
H       -1.96710865      -1.20573599      -0.96766013
H       -2.01755873      -0.05064384      -2.31949214
H       -2.00165804       0.54149747      -0.63974150
H       -0.75974849       0.62701963       3.51819439
H        0.65680169       1.60348715       3.21642201
H        0.85929085      -0.18355077       3.43984303
C        0.22821859       0.61189854       3.05147884
N        0.00484475       0.49344238       1.61958805
O        0.54966854      -0.45650128       1.10294427
20
Properties=species:S:1:pos:R:3 charge=1 charge_a=1 charge_b=0 selection_a=1-14 selection_b=15-20 scaling=0.9 benchmark_Eint=-14.802 benchmark_unit=kcal/mol group=NHk-O pbc="F F F"
C        0.41411610      -1.27837901      -2.19358690
N       -0.15218562      -0.19286232      -1.33858845
H        0.17119450      -0.36152240      -0.36652802
C        0.35780449       1.15171070      -1.74173611
C       -1.64503964      -0.22923859      -1.31503914
H        1.49730692      -1.24231460      -2.13653478
H        0.08964158      -1.12451981      -3.21855835
H        0.05610879      -2.23603448      -1.82946547
H        1.44206337       1.14487271      -1.69394777
H       -0.03950596       1.89440084      -1.05778221
H        0.03184268       1.36238236      -2.75611244
H       -1.96710865      -1.20573599      -0.96766013
H       -2.01755873      -0.05064384      -2.31949214
H       -2.00165804       0.54149747      -0.63974150
H       -0.73748531       0.62143264       3.60463393
H        0.67906487       1.59790016       3.30286155
H        0.88155403      -0.18913776       3.52628258
C        0.25048177       0.60631155       3.13791838
N        0.02710793       0.48785539       1.70602759
O        0.57193172      -0.46208827       1.18938382
20
Properties=species:S:1:pos:R:3 charge=1 charge_a=1 charge_b=0 selection_a=1-14 selection_b=15-20 scaling=0.95 benchmark_Eint=-15.746 benchmark_unit=kcal/mol group=NHk-O pbc="F F F"
C        0.41411610      -1.27837901      -2.19358690
N       -0.15218562      -0.19286232      -1.33858845
H        0.17119450      -0.36152240      -0.36652802
C        0.35780449       1.15171070      -1.74173611
C       -1.64503964      -0.22923859      -1.31503914
H        1.49730692      -1.24231460      -2.13653478
H        0.08964158      -1.12451981      -3.21855835
H        0.05610879      -2.23603448      -1.82946547
H        1.44206337       1.14487271      -1.69394777
H       -0.03950596       1.89440084      -1.05778221
H        0.03184268       1.36238236      -2.75611244
H       -1.96710865      -1.20573599      -0.96766013
H       -2.01755873      -0.05064384      -2.31949214
H       -2.00165804       0.54149747      -0.63974150
H       -0.71522213       0.61584565       3.69107348
H        0.70132805       1.59231317       3.38930110
H        0.90381721      -0.19472475       3.61272213
C        0.27274494       0.60072455       3.22435793
N        0.04937110       0.48226840       1.79246714
O        0.59419490      -0.46767527       1.27582336
20
Properties=species:S:1:pos:R:3 charge=1 charge_a=1 charge_b=0 selection_a=1-14 selection_b=15-20 scaling=1.0 benchmark_Eint=-16.062 benchmark_unit=kcal/mol group=NHk-O pbc="F F F"
C        0.41411610      -1.27837901      -2.19358690
N       -0.15218562      -0.19286232      -1.33858845
H        0.17119450      -0.36152240      -0.36652802
C        0.35780449       1.15171070      -1.74173611
C       -1.64503964      -0.22923859      -1.31503914
H        1.49730692      -1.24231460      -2.13653478
H        0.08964158      -1.12451981      -3.21855835
H        0.05610879      -2.23603448      -1.82946547
H        1.44206337       1.14487271      -1.69394777
H       -0.03950596       1.89440084      -1.05778221
H        0.03184268       1.36238236      -2.75611244
H       -1.96710865      -1.20573599      -0.96766013
H       -2.01755873      -0.05064384      -2.31949214
H       -2.00165804       0.54149747      -0.63974150
H       -0.69295895       0.61025865       3.77751303
H        0.72359123       1.58672618       3.47574065
H        0.92608039      -0.20031175       3.69916168
C        0.29500812       0.59513756       3.31079748
N        0.07163428       0.47668141       1.87890669
O        0.61645808      -0.47326226       1.36226291
20
Properties=species:S:1:pos:R:3 charge=1 charge_a=1 charge_b=0 selection_a=1-14 selection_b=15-20 scaling=1.05 benchmark_Eint=-15.956 benchmark_unit=kcal/mol group=NHk-O pbc="F F F"
C        0.41411610      -1.27837901      -2.19358690
N       -0.15218562      -0.19286232      -1.33858845
H        0.17119450      -0.36152240      -0.36652802
C        0.35780449       1.15171070      -1.74173611
C       -1.64503964      -0.22923859      -1.31503914
H        1.49730692      -1.24231460      -2.13653478
H        0.08964158      -1.12451981      -3.21855835
H        0.05610879      -2.23603448      -1.82946547
H        1.44206337       1.14487271      -1.69394777
H       -0.03950596       1.89440084      -1.05778221
H        0.03184268       1.36238236      -2.75611244
H       -1.96710865      -1.20573599      -0.96766013
H       -2.01755873      -0.05064384      -2.31949214
H       -2.00165804       0.54149747      -0.63974150
H       -0.67069577       0.60467166       3.86395257
H        0.74585441       1.58113918       3.56218019
H        0.94834357      -0.20589874       3.78560122
C        0.31727130       0.58955057       3.39723702
N        0.09389746       0.47109441       1.96534623
O        0.63872126      -0.47884925       1.44870246
20
Properties=species:S:1:pos:R:3 charge=1 charge_a=1 charge_b=0 selection_a=1-14 selection_b=15-20 scaling=1.1 benchmark_Eint=-15.577 benchmark_unit=kcal/mol group=NHk-O pbc="F F F"
C        0.41411610      -1.27837901      -2.19358690
N       -0.15218562      -0.19286232      -1.33858845
H        0.17119450      -0.36152240      -0.36652802
C        0.35780449       1.15171070      -1.74173611
C       -1.64503964      -0.22923859      -1.31503914
H        1.49730692      -1.24231460      -2.13653478
H        0.08964158      -1.12451981      -3.21855835
H        0.05610879      -2.23603448      -1.82946547
H        1.44206337       1.14487271      -1.69394777
H       -0.03950596       1.89440084      -1.05778221
H        0.03184268       1.36238236      -2.75611244
H       -1.96710865      -1.20573599      -0.96766013
H       -2.01755873      -0.05064384      -2.31949214
H       -2.00165804       0.54149747      -0.63974150
H       -0.64843259       0.59908467       3.95039212
H        0.76811759       1.57555219       3.64861974
H        0.97060675      -0.21148573       3.87204077
C        0.33953448       0.58396358       3.48367657
N        0.11616064       0.46550742       2.05178578
O        0.66098444      -0.48443624       1.53514200
20
Properties=species:S:1:pos:R:3 charge=1 charge_a=1 charge_b=0 selection_a=1-14 selection_b=15-20 scaling=1.25 benchmark_Eint=-13.688 benchmark_unit=kcal/mol group=NHk-O pbc="F F F"
C        0.41411610      -1.27837901      -2.19358690
N       -0.15218562      -0.19286232      -1.33858845
H        0.17119450      -0.36152240      -0.36652802
C        0.35780449       1.15171070      -1.74173611
C       -1.64503964      -0.22923859      -1.31503914
H        1.49730692      -1.24231460      -2.13653478
H        0.08964158      -1.12451981      -3.21855835
H        0.05610879      -2.23603448      -1.82946547
H        1.44206337       1.14487271      -1.69394777
H       -0.03950596       1.89440084      -1.05778221
H        0.03184268       1.36238236      -2.75611244
H       -1.96710865      -1.20573599      -0.96766013
H       -2.01755873      -0.05064384      -2.31949214
H       -2.00165804       0.54149747      -0.63974150
H       -0.58164306       0.58232369       4.20971076
H        0.83490712       1.55879121       3.90793838
H        1.03739628      -0.22824671       4.13135941
C        0.40632402       0.56720260       3.74299521
N        0.18295018       0.44874644       2.31110442
O        0.72777397      -0.50119722       1.79446064
20
Properties=species:S:1:pos:R:3 charge=1 charge_a=1 charge_b=0 selection_a=1-14 selection_b=15-20 scaling=1.5 benchmark_Eint=-10.388 benchmark_unit=kcal/mol group=NHk-O pbc="F F F"
C        0.41411610      -1.27837901      -2.19358690
N       -0.15218562      -0.19286232      -1.33858845
H        0.17119450      -0.36152240      -0.36652802
C        0.35780449       1.15171070      -1.74173611
C       -1.64503964      -0.22923859      -1.31503914
H        1.49730692      -1.24231460      -2.13653478
H        0.08964158      -1.12451981      -3.21855835
H        0.05610879      -2.23603448      -1.82946547
H        1.44206337       1.14487271      -1.69394777
H       -0.03950596       1.89440084      -1.05778221
H        0.03184268       1.36238236      -2.75611244
H       -1.96710865      -1.20573599      -0.96766013
H       -2.01755873      -0.05064384      -2.31949214
H       -2.00165804       0.54149747      -0.63974150
H       -0.47032716       0.55438873       4.64190849
H        0.94622302       1.53085625       4.34013611
H        1.14871218      -0.25618167       4.56355714
C        0.51763991       0.53926763       4.17519295
N        0.29426607       0.42081148       2.74330215
O        0.83908987      -0.52913219       2.22665838
20
Properties=species:S:1:pos:R:3 charge=1 charge_a=1 charge_b=0 selection_a=1-14 selection_b=15-20 scaling=2.0 benchmark_Eint=-6.337 benchmark_unit=kcal/mol group=NHk-O pbc="F F F"
C        0.41411610      -1.27837901      -2.19358690
N       -0.15218562      -0.19286232      -1.33858845
H        0.17119450      -0.36152240      -0.36652802
C        0.35780449       1.15171070      -1.74173611
C       -1.64503964      -0.22923859      -1.31503914
H        1.49730692      -1.24231460      -2.13653478
H        0.08964158      -1.12451981      -3.21855835
H        0.05610879      -2.23603448      -1.82946547
H        1.44206337       1.14487271      -1.69394777
H       -0.03950596       1.89440084      -1.05778221
H        0.03184268       1.36238236      -2.75611244
H       -1.96710865      -1.20573599      -0.96766013
H       -2.01755873      -0.05064384      -2.31949214
H       -2.00165804       0.54149747      -0.63974150
H       -0.24769538       0.49851880       5.50630396
H        1.16885481       1.47498632       5.20453158
H        1.37134396      -0.31205160       5.42795261
C        0.74027170       0.48339771       5.03958841
N        0.51689786       0.36494155       3.60769762
O        1.06172165      -0.58500211       3.09105384
19
Properties=species:S:1:pos:R:3 charge=1 charge_a=1 charge_b=0 selection_a=1-10 selection_b=11-19 scaling=0.8 benchmark_Eint=-23.197 benchmark_unit=kcal/mol group=NHk-O pbc="F F F"
N       -1.68044889       0.74483091      -0.33519155
C       -2.19041130      -0.45597345      -0.09495318
N       -1.36803177      -1.45036672       0.21989903
N       -3.50919188      -0.66424449      -0.16780164
H       -0.66845457       0.85847453      -0.26804954
H       -2.26603703       1.52278722      -0.57567054
H       -0.37083362      -1.25717763       0.26664451
H       -1.71186193      -2.37331794       0.40895731
H       -4.14165123       0.07791406      -0.40502056
H       -3.90548601      -1.56856145       0.01178634
H        3.77640226       0.00703267       0.35042476
H        2.59347473      -1.23548421       0.53814141
H        1.88297546       2.25504004      -1.27344481
H        1.72473816       2.66353062       0.43099801
H        3.29914891       2.17173551      -0.21348187
O        0.64695899       0.22833043       0.00566332
C        1.83346886       0.58341261       0.03110259
N        2.81364114      -0.27639030       0.32861719
C        2.22788101       2.00201019      -0.27226889
19
Properties=species:S:1:pos:R:3 charge=1 charge_a=1 charge_b=0 selection_a=1-10 selection_b=11-19 scaling=0.85 benchmark_Eint=-26.239 benchmark_unit=kcal/mol group=NHk-O pbc="F F F"
N       -1.68044889       0.74483091      -0.33519155
C       -2.19041130      -0.45597345      -0.09495318
N       -1.36803177      -1.45036672       0.21989903
N       -3.50919188      -0.66424449      -0.16780164
H       -0.66845457       0.85847453      -0.26804954
H       -2.26603703       1.52278722      -0.57567054
H       -0.37083362      -1.25717763       0.26664451
H       -1.71186193      -2.37331794       0.40895731
H       -4.14165123       0.07791406      -0.40502056
H       -3.90548601      -1.56856145       0.01178634
H        3.85861561      -0.03235133       0.36753181
H        2.67568808      -1.27486821       0.55524846
H        1.96518880       2.21565603      -1.25633775
H        1.80695151       2.62414662       0.44810506
H        3.38136226       2.13235150      -0.19637482
O        0.72917233       0.18894642       0.02277038
C        1.91568221       0.54402860       0.04820964
N        2.89585449      -0.31577430       0.34572425
C        2.31009435       1.96262619      -0.25516184
19
Properties=species:S:1:pos:R:3 charge=1 charge_a=1 charge_b=0 selection_a=1-10 selection_b=11-19 scaling=0.9 benchmark_Eint=-28.018 benchmark_unit=kcal/mol group=NHk-O pbc="F F F"
N       -1.68044889       0.74483091      -0.33519155
C       -2.19041130      -0.45597345      -0.09495318
N       -1.36803177      -1.45036672       0.21989903
N       -3.50919188      -0.66424449      -0.16780164
H       -0.66845457       0.85847453      -0.26804954
H       -2.26603703       1.52278722      -0.57567054
H       -0.37083362      -1.25717763       0.26664451
H       -1.71186193      -2.37331794       0.40895731
H       -4.14165123       0.07791406      -0.40502056
H       -3.90548601      -1.56856145       0.01178634
H        3.94082896      -0.07173534       0.38463887
H        2.75790143      -1.31425222       0.57235552
H        2.04740215       2.17627203      -1.23923070
H        1.88916485       2.58476261       0.46521212
H        3.46357560       2.09296749      -0.17926777
O        0.81138568       0.14956242       0.03987743
C        1.99789555       0.50464460       0.06531670
N        2.97806783      -0.35515831       0.36283130
C        2.39230770       1.92324218      -0.23805479
19
Properties=species:S:1:pos:R:3 charge=1 charge_a=1 charge_b=0 selection_a=1-10 selection_b=11-19 scaling=0.95 benchmark_Eint=-28.898 benchmark_unit=kcal/mol group=NHk-O pbc="F F F"
N       -1.68044889       0.74483091      -0.33519155
C       -2.19041130      -0.45597345      -0.09495318
N       -1.36803177      -1.45036672       0.21989903
N       -3.50919188      -0.66424449      -0.16780164
H       -0.66845457       0.85847453      -0.26804954
H       -2.26603703       1.52278722      -0.57567054
H       -0.37083362      -1.25717763       0.26664451
H       -1.71186193      -2.37331794       0.40895731
H       -4.14165123       0.07791406      -0.40502056
H       -3.90548601      -1.56856145       0.01178634
H        4.02304230      -0.11111935       0.40174592
H        2.84011477      -1.35363623       0.58946257
H        2.12961550       2.13688802      -1.22212365
H        1.97137820       2.54537860       0.48231917
H        3.54578895       2.05358349      -0.16216071
O        0.89359903       0.11017841       0.05698448
C        2.08010890       0.46526059       0.08242375
N        3.06028118      -0.39454231       0.37993836
C        2.47452105       1.88385817      -0.22094773
19
Properties=species:S:1:pos:R:3 charge=1 charge_a=1 charge_b=0 selection_a=1-10 selection_b=11-19 scaling=1.0 benchmark_Eint=-29.14 benchmark_unit=kcal/mol group=NHk-O pbc="F F F"
N       -1.68044889       0.74483091      -0.33519155
C       -2.19041130      -0.45597345      -0.09495318
N       -1.36803177      -1.45036672       0.21989903
N       -3.50919188      -0.66424449      -0.16780164
H       -0.66845457       0.85847453      -0.26804954
H       -2.26603703       1.52278722      -0.57567054
H       -0.37083362      -1.25717763       0.26664451
H       -1.71186193      -2.37331794       0.40895731
H       -4.14165123       0.07791406      -0.40502056
H       -3.90548601      -1.56856145       0.01178634
H        4.10525565      -0.15050335       0.41885298
H        2.92232812      -1.39302023       0.60656963
H        2.21182885       2.09750402      -1.20501659
H        2.05359155       2.50599460       0.49942623
H        3.62800230       2.01419948      -0.14505366
O        0.97581237       0.07079440       0.07409154
C        2.16232225       0.42587658       0.09953080
N        3.14249453      -0.43392632       0.39704541
C        2.55673439       1.84447417      -0.20384068
19
Properties=species:S:1:pos:R:3 charge=1 charge_a=1 charge_b=0 selection_a=1-10 selection_b=11-19 scaling=1.05 benchmark_Eint=-28.933 benchmark_unit=kcal/mol group=NHk-O pbc="F F F"
N       -1.68044889       0.74483091      -0.33519155
C       -2.19041130      -0.45597345      -0.09495318
N       -1.36803177      -1.45036672       0.21989903
N       -3.50919188      -0.66424449      -0.16780164
H       -0.66845457       0.85847453      -0.26804954
H       -2.26603703       1.52278722      -0.57567054
H       -0.37083362      -1.25717763       0.26664451
H       -1.71186193      -2.37331794       0.40895731
H       -4.14165123       0.07791406      -0.40502056
H       -3.90548601      -1.56856145       0.01178634
H        4.18746900      -0.18988736       0.43596003
H        3.00454147      -1.43240424       0.62367668
H        2.29404219       2.05812001      -1.18790954
H        2.13580489       2.46661059       0.51653328
H        3.71021565       1.97481548      -0.12794660
O        1.05802572       0.03141040       0.09119859
C        2.24453559       0.38649258       0.11663786
N        3.22470788      -0.47331033       0.41415246
C        2.63894774       1.80509016      -0.18673362
19
Properties=species:S:1:pos:R:3 charge=1 charge_a=1 charge_b=0 selection_a=1-10 selection_b=11-19 scaling=1.1 benchmark_Eint=-28.413 benchmark_unit=kcal/mol group=NHk-O pbc="F F F"
N       -1.68044889       0.74483091      -0.33519155
C       -2.19041130      -0.45597345      -0.09495318
N       -1.36803177      -1.45036672       0.21989903
N       -3.50919188      -0.66424449      -0.16780164
H       -0.66845457       0.85847453      -0.26804954
H       -2.26603703       1.52278722      -0.57567054
H       -0.37083362      -1.25717763       0.26664451
H       -1.71186193      -2.37331794       0.40895731
H       -4.14165123       0.07791406      -0.40502056
H       -3.90548601      -1.56856145       0.01178634
H        4.26968234      -0.22927137       0.45306708
H        3.08675482      -1.47178825       0.64078373
H        2.37625554       2.01873600      -1.17080248
H        2.21801824       2.42722659       0.53364033
H        3.79242899       1.93543147      -0.11083955
O        1.14023907      -0.00797361       0.10830565
C        2.32674894       0.34710857       0.13374491
N        3.30692122      -0.51269433       0.43125952
C        2.72116109       1.76570615      -0.16962657
19
Properties=species:S:1:pos:R:3 charge=1 charge_a=1 charge_b=0 selection_a=1-10 selection_b=11-19 scaling=1.25 benchmark_Eint=-25.842 benchmark_unit=kcal/mol group=NHk-O pbc="F F F"
N       -1.68044889       0.74483091      -0.33519155
C       -2.19041130      -0.45597345      -0.09495318
N       -1.36803177      -1.45036672       0.21989903
N       -3.50919188      -0.66424449      -0.16780164
H       -0.66845457       0.85847453      -0.26804954
H       -2.26603703       1.52278722      -0.57567054
H       -0.37083362      -1.25717763       0.26664451
H       -1.71186193      -2.37331794       0.40895731
H       -4.14165123       0.07791406      -0.40502056
H       -3.90548601      -1.56856145       0.01178634
H        4.51632238      -0.34742338       0.50438825
H        3.33339486      -1.58994027       0.69210490
H        2.62289558       1.90058398      -1.11948132
H        2.46465828       2.30907457       0.58496150
H        4.03906903       1.81727945      -0.05951839
O        1.38687911      -0.12612563       0.15962681
C        2.57338898       0.22895655       0.18506607
N        3.55356126      -0.63084635       0.48258068
C        2.96780113       1.64755414      -0.11830541
19
Properties=species:S:1:pos:R:3 charge=1 charge_a=1 charge_b=0 selection_a=1-10 selection_b=11-19 scaling=1.5 benchmark_Eint=-20.733 benchmark_unit=kcal/mol group=NHk-O pbc="F F F"
N       -1.68044889       0.74483091      -0.33519155
C       -2.19041130      -0.45597345      -0.09495318
N       -1.36803177      -1.45036672       0.21989903
N       -3.50919188      -0.66424449      -0.16780164
H       -0.66845457       0.85847453      -0.26804954
H       -2.26603703       1.52278722      -0.57567054
H       -0.37083362      -1.25717763       0.26664451
H       -1.71186193      -2.37331794       0.40895731
H       -4.14165123       0.07791406      -0.40502056
H       -3.90548601      -1.56856145       0.01178634
H        4.92738912      -0.54434342       0.58992352
H        3.74446159      -1.78686030       0.77764017
H        3.03396232       1.70366395      -1.03394605
H        2.87572502       2.11215454       0.67049677
H        4.45013577       1.62035942       0.02601688
O        1.79794584      -0.32304566       0.24516208
C        2.98445572       0.03203652       0.27060134
N        3.96462800      -0.82776638       0.56811595
C        3.37886786       1.45063410      -0.03277014
19
Properties=species:S:1:pos:R:3 charge=1 charge_a=1 charge_b=0 selection_a=1-10 selection_b=11-19 scaling=2.0 benchmark_Eint=-12.934 benchmark_unit=kcal/mol group=NHk-O pbc="F F F"
N       -1.68044889       0.74483091      -0.33519155
C       -2.19041130      -0.45597345      -0.09495318
N       -1.36803177      -1.45036672       0.21989903
N       -3.50919188      -0.66424449      -0.16780164
H       -0.66845457       0.85847453      -0.26804954
H       -2.26603703       1.52278722      -0.57567054
H       -0.37083362      -1.25717763       0.26664451
H       -1.71186193      -2.37331794       0.40895731
H       -4.14165123       0.07791406      -0.40502056
H       -3.90548601      -1.56856145       0.01178634
H        5.74952259      -0.93818348       0.76099406
H        4.56659506      -2.18070036       0.94871071
H        3.85609579       1.30982389      -0.86287551
H        3.69785849       1.71831447       0.84156731
H        5.27226924       1.22651935       0.19708742
O        2.62007931      -0.71688573       0.41623262
C        3.80658919      -0.36180355       0.44167189
N        4.78676147      -1.22160645       0.73918649
C        4.20100133       1.05679404       0.13830040
19
Properties=species:S:1:pos:R:3 charge=1 charge_a=1 charge_b=0 selection_a=1-10 selection_b=11-19 scaling=0.8 benchmark_Eint=-8.418 benchmark_unit=kcal/mol group=NHk-O pbc="F F F"
N       -1.92913382       0.45903749      -0.60994885
C       -2.19752523      -0.83700966      -0.48916213
N       -1.23492259      -1.66407296      -0.09459279
N       -3.41754093      -1.30179505      -0.76057017
H       -0.99843712       0.79371236      -0.39972853
H       -2.62861252       1.11565375      -0.90528639
H       -0.31578531      -1.29390765       0.10688708
H       -1.39772143      -2.64914497       0.00914628
H       -4.15560778      -0.68990354      -1.05960536
H       -3.63618047      -2.27820006      -0.67450675
H        2.88109310       1.43407555       2.02231845
H        3.60963471       1.04103718      -0.57793484
H        0.28024438       0.61316368       2.15025498
H        1.38150927       0.01903603      -1.78029135
C        2.65146965       0.83442342      -0.13645601
C        2.26824561       1.04118365       1.23128879
C        0.98477892       0.64731840       1.34065671
O        0.52512308       0.19948903       0.11694036
C        1.57631839       0.32818069      -0.77060620
19
Properties=species:S:1:pos:R:3 charge=1 charge_a=1 charge_b=0 selection_a=1-10 selection_b=11-19 scaling=0.85 benchmark_Eint=-11.337 benchmark_unit=kcal/mol group=NHk-O pbc="F F F"
N       -1.92913382       0.45903749      -0.60994885
C       -2.19752523      -0.83700966      -0.48916213
N       -1.23492259      -1.66407296      -0.09459279
N       -3.41754093      -1.30179505      -0.76057017
H       -0.99843712       0.79371236      -0.39972853
H       -2.62861252       1.11565375      -0.90528639
H       -0.31578531      -1.29390765       0.10688708
H       -1.39772143      -2.64914497       0.00914628
H       -4.15560778      -0.68990354      -1.05960536
H       -3.63618047      -2.27820006      -0.67450675
H        2.97437581       1.46954963       2.04309862
H        3.70291742       1.07651125      -0.55715466
H        0.37352709       0.64863775       2.17103516
H        1.47479198       0.05451011      -1.75951117
C        2.74475236       0.86989749      -0.11567584
C        2.36152832       1.07665773       1.25206897
C        1.07806163       0.68279247       1.36143689
O        0.61840579       0.23496310       0.13772053
C        1.66960110       0.36365476      -0.74982602
19
Properties=species:S:1:pos:R:3 charge=1 charge_a=1 charge_b=0 selection_a=1-10 selection_b=11-19 scaling=0.9 benchmark_Eint=-13.046 benchmark_unit=kcal/mol group=NHk-O pbc="F F F"
N       -1.92913382       0.45903749      -0.60994885
C       -2.19752523      -0.83700966      -0.48916213
N       -1.23492259      -1.66407296      -0.09459279
N       -3.41754093      -1.30179505      -0.76057017
H       -0.99843712       0.79371236      -0.39972853
H       -2.62861252       1.11565375      -0.90528639
H       -0.31578531      -1.29390765       0.10688708
H       -1.39772143      -2.64914497       0.00914628
H       -4.15560778      -0.68990354      -1.05960536
H       -3.63618047      -2.27820006      -0.67450675
H        3.06765852       1.50502370       2.06387880
H        3.79620013       1.11198532      -0.53637449
H        0.46680980       0.68411182       2.19181533
H        1.56807469       0.08998418      -1.73873100
C        2.83803507       0.90537156      -0.09489566
C        2.45481103       1.11213180       1.27284914
C        1.17134434       0.71826655       1.38221706
O        0.71168850       0.27043717       0.15850071
C        1.76288381       0.39912883      -0.72904585
19
Properties=species:S:1:pos:R:3 charge=1 charge_a=1 charge_b=0 selection_a=1-10 selection_b=11-19 scaling=0.95 benchmark_Eint=-13.878 benchmark_unit=kcal/mol group=NHk-O pbc="F F F"
N       -1.92913382       0.45903749      -0.60994885
C       -2.19752523      -0.83700966      -0.48916213
N       -1.23492259      -1.66407296      -0.09459279
N       -3.41754093      -1.30179505      -0.76057017
H       -0.99843712       0.79371236      -0.39972853
H       -2.62861252       1.11565375      -0.90528639
H       -0.31578531      -1.29390765       0.10688708
H       -1.39772143      -2.64914497       0.00914628
H       -4.15560778      -0.68990354      -1.05960536
H       -3.63618047      -2.27820006      -0.67450675
H        3.16094123       1.54049777       2.08465897
H        3.88948283       1.14745939      -0.51559431
H        0.56009251       0.71958589       2.21259551
H        1.66135740       0.12545825      -1.71795082
C        2.93131778       0.94084563      -0.07411549
C        2.54809374       1.14760587       1.29362931
C        1.26462705       0.75374062       1.40299723
O        0.80497121       0.30591125       0.17928088
C        1.85616652       0.43460290      -0.70826567
19
Properties=species:S:1:pos:R:3 charge=1 charge_a=1 charge_b=0 selection_a=1-10 selection_b=11-19 scaling=1.0 benchmark_Eint=-14.094 benchmark_unit=kcal/mol group=NHk-O pbc="F F F"
N       -1.92913382       0.45903749      -0.60994885
C       -2.19752523      -0.83700966      -0.48916213
N       -1.23492259      -1.66407296      -0.09459279
N       -3.41754093      -1.30179505      -0.76057017
H       -0.99843712       0.79371236      -0.39972853
H       -2.62861252       1.11565375      -0.90528639
H       -0.31578531      -1.29390765       0.10688708
H       -1.39772143      -2.64914497       0.00914628
H       -4.15560778      -0.68990354      -1.05960536
H       -3.63618047      -2.27820006      -0.67450675
H        3.25422394       1.57597184       2.10543915
H        3.98276554       1.18293347      -0.49481414
H        0.65337522       0.75505996       2.23337568
H        1.75464011       0.16093232      -1.69717065
C        3.02460049       0.97631970      -0.05333531
C        2.64137645       1.18307994       1.31440949
C        1.35790976       0.78921469       1.42377741
O        0.89825392       0.34138532       0.20006106
C        1.94944923       0.47007697      -0.68748550
19
Properties=species:S:1:pos:R:3 charge=1 charge_a=1 charge_b=0 selection_a=1-10 selection_b=11-19 scaling=1.05 benchmark_Eint=-13.889 benchmark_unit=kcal/mol group=NHk-O pbc="F F F"
N       -1.92913382       0.45903749      -0.60994885
C       -2.19752523      -0.83700966      -0.48916213
N       -1.23492259      -1.66407296      -0.09459279
N       -3.41754093      -1.30179505      -0.76057017
H       -0.99843712       0.79371236      -0.39972853
H       -2.62861252       1.11565375      -0.90528639
H       -0.31578531      -1.29390765       0.10688708
H       -1.39772143      -2.64914497       0.00914628
H       -4.15560778      -0.68990354      -1.05960536
H       -3.63618047      -2.27820006      -0.67450675
H        3.34750665       1.61144591       2.12621932
H        4.07604825       1.21840754      -0.47403397
H        0.74665793       0.79053403       2.25415586
H        1.84792282       0.19640639      -1.67639047
C        3.11788320       1.01179378      -0.03255514
C        2.73465916       1.21855401       1.33518966
C        1.45119247       0.82468876       1.44455758
O        0.99153663       0.37685939       0.22084123
C        2.04273194       0.50555104      -0.66670532
19
Properties=species:S:1:pos:R:3 charge=1 charge_a=1 charge_b=0 selection_a=1-10 selection_b=11-19 scaling=1.1 benchmark_Eint=-13.407 benchmark_unit=kcal/mol group=NHk-O pbc="F F F"
N       -1.92913382       0.45903749      -0.60994885
C       -2.19752523      -0.83700966      -0.48916213
N       -1.23492259      -1.66407296      -0.09459279
N       -3.41754093      -1.30179505      -0.76057017
H       -0.99843712       0.79371236      -0.39972853
H       -2.62861252       1.11565375      -0.90528639
H       -0.31578531      -1.29390765       0.10688708
H       -1.39772143      -2.64914497       0.00914628
H       -4.15560778      -0.68990354      -1.05960536
H       -3.63618047      -2.27820006      -0.67450675
H        3.44078935       1.64691998       2.14699950
H        4.16933096       1.25388161      -0.45325379
H        0.83994064       0.82600810       2.27493603
H        1.94120553       0.23188046      -1.65561030
C        3.21116590       1.04726785      -0.01177496
C        2.82794187       1.25402808       1.35596984
C        1.54447518       0.86016283       1.46533776
O        1.08481934       0.41233346       0.24162141
C        2.13601465       0.54102512      -0.64592515
19
Properties=species:S:1:pos:R:3 charge=1 charge_a=1 charge_b=0 selection_a=1-10 selection_b=11-19 scaling=1.25 benchmark_Eint=-11.234 benchmark_unit=kcal/mol group=NHk-O pbc="F F F"
N       -1.92913382       0.45903749      -0.60994885
C       -2.19752523      -0.83700966      -0.48916213
N       -1.23492259      -1.66407296      -0.09459279
N       -3.41754093      -1.30179505      -0.76057017
H       -0.99843712       0.79371236      -0.39972853
H       -2.62861252       1.11565375      -0.90528639
H       -0.31578531      -1.29390765       0.10688708
H       -1.39772143      -2.64914497       0.00914628
H       -4.15560778      -0.68990354      -1.05960536
H       -3.63618047      -2.27820006      -0.67450675
H        3.72063748       1.75334220       2.20934002
H        4.44917909       1.36030382      -0.39091327
H        1.11978877       0.93243032       2.33727656
H        2.22105366       0.33830268      -1.59326977
C        3.49101403       1.15369006       0.05056556
C        3.10779000       1.36045030       1.41831036
C        1.82432331       0.96658505       1.52767828
O        1.36466747       0.51875567       0.30396193
C        2.41586278       0.64744733      -0.58358462
19
Properties=species:S:1:pos:R:3 charge=1 charge_a=1 charge_b=0 selection_a=1-10 selection_b=11-19 scaling=1.5 benchmark_Eint=-7.667 benchmark_unit=kcal/mol group=NHk-O pbc="F F F"
N       -1.92913382       0.45903749      -0.60994885
C       -2.19752523      -0.83700966      -0.48916213
N       -1.23492259      -1.66407296      -0.09459279
N       -3.41754093      -1.30179505      -0.76057017
H       -0.99843712       0.79371236      -0.39972853
H       -2.62861252       1.11565375      -0.90528639
H       -0.31578531      -1.29390765       0.10688708
H       -1.39772143      -2.64914497       0.00914628
H       -4.15560778      -0.68990354      -1.05960536
H       -3.63618047      -2.27820006      -0.67450675
H        4.18705103       1.93071255       2.31324089
H        4.91559264       1.53767418      -0.28701239
H        1.58620232       1.10980068       2.44117743
H        2.68746720       0.51567303      -1.48936890
C        3.95742758       1.33106042       0.15446644
C        3.57420355       1.53782065       1.52221124
C        2.29073686       1.14395540       1.63157916
O        1.83108102       0.69612603       0.40786280
C        2.88227632       0.82481769      -0.47968375
19
Properties=species:S:1:pos:R:3 charge=1 charge_a=1 charge_b=0 selection_a=1-10 selection_b=11-19 scaling=2.0 benchmark_Eint=-3.747 benchmark_unit=kcal/mol group=NHk-O pbc="F F F"
N       -1.92913382       0.45903749      -0.60994885
C       -2.19752523      -0.83700966      -0.48916213
N       -1.23492259      -1.66407296      -0.09459279
N       -3.41754093      -1.30179505      -0.76057017
H       -0.99843712       0.79371236      -0.39972853
H       -2.62861252       1.11565375      -0.90528639
H       -0.31578531      -1.29390765       0.10688708
H       -1.39772143      -2.64914497       0.00914628
H       -4.15560778      -0.68990354      -1.05960536
H       -3.63618047      -2.27820006      -0.67450675
H        5.11987813       2.28545327       2.52104264
H        5.84841974       1.89241489      -0.07921064
H        2.51902942       1.46454139       2.64897918
H        3.62029430       0.87041375      -1.28156715
C        4.89025468       1.68580113       0.36226818
C        4.50703064       1.89256137       1.73001298
C        3.22356395       1.49869612       1.83938090
O        2.76390811       1.05086675       0.61566455
C        3.81510342       1.17955840      -0.27188200
17
Properties=species:S:1:pos:R:3 charge=1 charge_a=1 charge_b=0 selection_a=1-10 selection_b=11-17 scaling=0.8 benchmark_Eint=-11.911 benchmark_unit=kcal/mol group=NHk-O pbc="F F F"
N       -1.78611192       0.59012989      -0.04081135
C       -2.02492171      -0.69679948      -0.26388759
N       -1.01181055      -1.55297333      -0.32351409
N       -3.27846852      -1.12814863      -0.42729174
H       -0.83700279       0.92837715       0.08390579
H       -2.53667259       1.25503216       0.00769756
H       -0.05528648      -1.23527600      -0.20143540
H       -1.16910322      -2.53010021      -0.49165520
H       -4.05776511      -0.49663404      -0.38569275
H       -3.47956358      -2.09701639      -0.59670223
H        2.99909040       2.04330163       0.07387776
H        3.13956446       0.94140206       1.46985658
H        3.60952109       0.35342249      -0.14761076
C        2.94859729       1.01245218       0.40119058
N        1.55098160       0.53471314       0.19445430
O        1.37680972      -0.65752007      -0.00539710
O        0.64936745       1.35602393       0.25957987
17
Properties=species:S:1:pos:R:3 charge=1 charge_a=1 charge_b=0 selection_a=1-10 selection_b=11-17 scaling=0.85 benchmark_Eint=-16.46 benchmark_unit=kcal/mol group=NHk-O pbc="F F F"
N       -1.78611192       0.59012989      -0.04081135
C       -2.02492171      -0.69679948      -0.26388759
N       -1.01181055      -1.55297333      -0.32351409
N       -3.27846852      -1.12814863      -0.42729174
H       -0.83700279       0.92837715       0.08390579
H       -2.53667259       1.25503216       0.00769756
H       -0.05528648      -1.23527600      -0.20143540
H       -1.16910322      -2.53010021      -0.49165520
H       -4.05776511      -0.49663404      -0.38569275
H       -3.47956358      -2.09701639      -0.59670223
H        3.09038926       2.07475380       0.08550610
H        3.23086332       0.97285424       1.48148491
H        3.70081995       0.38487467      -0.13598242
C        3.03989615       1.04390436       0.41281891
N        1.64228046       0.56616532       0.20608263
O        1.46810857      -0.62606790       0.00623124
O        0.74066631       1.38747611       0.27120821
17
Properties=species:S:1:pos:R:3 charge=1 charge_a=1 charge_b=0 selection_a=1-10 selection_b=11-17 scaling=0.9 benchmark_Eint=-19.026 benchmark_unit=kcal/mol group=NHk-O pbc="F F F"
N       -1.78611192       0.59012989      -0.04081135
C       -2.02492171      -0.69679948      -0.26388759
N       -1.01181055      -1.55297333      -0.32351409
N       -3.27846852      -1.12814863      -0.42729174
H       -0.83700279       0.92837715       0.08390579
H       -2.53667259       1.25503216       0.00769756
H       -0.05528648      -1.23527600      -0.20143540
H       -1.16910322      -2.53010021      -0.49165520
H       -4.05776511      -0.49663404      -0.38569275
H       -3.47956358      -2.09701639      -0.59670223
H        3.18168812       2.10620598       0.09713444
H        3.32216217       1.00430642       1.49311325
H        3.79211881       0.41632684      -0.12435408
C        3.13119500       1.07535654       0.42444725
N        1.73357932       0.59761749       0.21771097
O        1.55940743      -0.59461572       0.01785958
O        0.83196516       1.41892828       0.28283655
17
Properties=species:S:1:pos:R:3 charge=1 charge_a=1 charge_b=0 selection_a=1-10 selection_b=11-17 scaling=0.95 benchmark_Eint=-20.256 benchmark_unit=kcal/mol group=NHk-O pbc="F F F"
N       -1.78611192       0.59012989      -0.04081135
C       -2.02492171      -0.69679948      -0.26388759
N       -1.01181055      -1.55297333      -0.32351409
N       -3.27846852      -1.12814863      -0.42729174
H       -0.83700279       0.92837715       0.08390579
H       -2.53667259       1.25503216       0.00769756
H       -0.05528648      -1.23527600      -0.20143540
H       -1.16910322      -2.53010021      -0.49165520
H       -4.05776511      -0.49663404      -0.38569275
H       -3.47956358      -2.09701639      -0.59670223
H        3.27298698       2.13765815       0.10876278
H        3.41346103       1.03575859       1.50474159
H        3.88341767       0.44777902      -0.11272575
C        3.22249386       1.10680871       0.43607559
N        1.82487818       0.62906967       0.22933931
O        1.65070629      -0.56316354       0.02948791
O        0.92326402       1.45038046       0.29446489
17
Properties=species:S:1:pos:R:3 charge=1 charge_a=1 charge_b=0 selection_a=1-10 selection_b=11-17 scaling=1.0 benchmark_Eint=-20.6 benchmark_unit=kcal/mol group=NHk-O pbc="F F F"
N       -1.78611192       0.59012989      -0.04081135
C       -2.02492171      -0.69679948      -0.26388759
N       -1.01181055      -1.55297333      -0.32351409
N       -3.27846852      -1.12814863      -0.42729174
H       -0.83700279       0.92837715       0.08390579
H       -2.53667259       1.25503216       0.00769756
H       -0.05528648      -1.23527600      -0.20143540
H       -1.16910322      -2.53010021      -0.49165520
H       -4.05776511      -0.49663404      -0.38569275
H       -3.47956358      -2.09701639      -0.59670223
H        3.36428583       2.16911033       0.12039111
H        3.50475989       1.06721077       1.51636993
H        3.97471653       0.47923119      -0.10109741
C        3.31379272       1.13826089       0.44770393
N        1.91617704       0.66052185       0.24096765
O        1.74200515      -0.53171137       0.04111625
O        1.01456288       1.48183263       0.30609323
17
Properties=species:S:1:pos:R:3 charge=1 charge_a=1 charge_b=0 selection_a=1-10 selection_b=11-17 scaling=1.05 benchmark_Eint=-20.375 benchmark_unit=kcal/mol group=NHk-O pbc="F F F"
N       -1.78611192       0.59012989      -0.04081135
C       -2.02492171      -0.69679948      -0.26388759
N       -1.01181055      -1.55297333      -0.32351409
N       -3.27846852      -1.12814863      -0.42729174
H       -0.83700279       0.92837715       0.08390579
H       -2.53667259       1.25503216       0.00769756
H       -0.05528648      -1.23527600      -0.20143540
H       -1.16910322      -2.53010021      -0.49165520
H       -4.05776511      -0.49663404      -0.38569275
H       -3.47956358      -2.09701639      -0.59670223
H        3.45558469       2.20056251       0.13201945
H        3.59605875       1.09866294       1.52799827
H        4.06601539       0.51068337      -0.08946907
C        3.40509158       1.16971306       0.45933227
N        2.00747589       0.69197402       0.25259599
O        1.83330401      -0.50025919       0.05274459
O        1.10586174       1.51328481       0.31772156
17
Properties=species:S:1:pos:R:3 charge=1 charge_a=1 charge_b=0 selection_a=1-10 selection_b=11-17 scaling=1.1 benchmark_Eint=-19.794 benchmark_unit=kcal/mol group=NHk-O pbc="F F F"
N       -1.78611192       0.59012989      -0.04081135
C       -2.02492171      -0.69679948      -0.26388759
N       -1.01181055      -1.55297333      -0.32351409
N       -3.27846852      -1.12814863      -0.42729174
H       -0.83700279       0.92837715       0.08390579
H       -2.53667259       1.25503216       0.00769756
H       -0.05528648      -1.23527600      -0.20143540
H       -1.16910322      -2.53010021      -0.49165520
H       -4.05776511      -0.49663404      -0.38569275
H       -3.47956358      -2.09701639      -0.59670223
H        3.54688355       2.23201468       0.14364779
H        3.68735761       1.13011512       1.53962661
H        4.15731425       0.54213555      -0.07784073
C        3.49639044       1.20116524       0.47096061
N        2.09877475       0.72342620       0.26422433
O        1.92460287      -0.46880702       0.06437293
O        1.19716060       1.54473699       0.32934990
17
Properties=species:S:1:pos:R:3 charge=1 charge_a=1 charge_b=0 selection_a=1-10 selection_b=11-17 scaling=1.25 benchmark_Eint=-17.176 benchmark_unit=kcal/mol group=NHk-O pbc="F F F"
N       -1.78611192       0.59012989      -0.04081135
C       -2.02492171      -0.69679948      -0.26388759
N       -1.01181055      -1.55297333      -0.32351409
N       -3.27846852      -1.12814863      -0.42729174
H       -0.83700279       0.92837715       0.08390579
H       -2.53667259       1.25503216       0.00769756
H       -0.05528648      -1.23527600      -0.20143540
H       -1.16910322      -2.53010021      -0.49165520
H       -4.05776511      -0.49663404      -0.38569275
H       -3.47956358      -2.09701639      -0.59670223
H        3.82078013       2.32637121       0.17853281
H        3.96125418       1.22447165       1.57451162
H        4.43121082       0.63649207      -0.04295571
C        3.77028701       1.29552177       0.50584562
N        2.37267133       0.81778273       0.29910934
O        2.19849944      -0.37445049       0.09925795
O        1.47105717       1.63909351       0.36423492
17
Properties=species:S:1:pos:R:3 charge=1 charge_a=1 charge_b=0 selection_a=1-10 selection_b=11-17 scaling=1.5 benchmark_Eint=-12.901 benchmark_unit=kcal/mol group=NHk-O pbc="F F F"
N       -1.78611192       0.59012989      -0.04081135
C       -2.02492171      -0.69679948      -0.26388759
N       -1.01181055      -1.55297333      -0.32351409
N       -3.27846852      -1.12814863      -0.42729174
H       -0.83700279       0.92837715       0.08390579
H       -2.53667259       1.25503216       0.00769756
H       -0.05528648      -1.23527600      -0.20143540
H       -1.16910322      -2.53010021      -0.49165520
H       -4.05776511      -0.49663404      -0.38569275
H       -3.47956358      -2.09701639      -0.59670223
H        4.27727442       2.48363209       0.23667450
H        4.41774848       1.38173253       1.63265332
H        4.88770511       0.79375295       0.01518598
C        4.22678131       1.45278265       0.56398732
N        2.82916562       0.97504360       0.35725104
O        2.65499373      -0.21718961       0.15739964
O        1.92755147       1.79635439       0.42237661
17
Properties=species:S:1:pos:R:3 charge=1 charge_a=1 charge_b=0 selection_a=1-10 selection_b=11-17 scaling=2.0 benchmark_Eint=-7.856 benchmark_unit=kcal/mol group=NHk-O pbc="F F F"
N       -1.78611192       0.59012989      -0.04081135
C       -2.02492171      -0.69679948      -0.26388759
N       -1.01181055      -1.55297333      -0.32351409
N       -3.27846852      -1.12814863      -0.42729174
H       -0.83700279       0.92837715       0.08390579
H       -2.53667259       1.25503216       0.00769756
H       -0.05528648      -1.23527600      -0.20143540
H       -1.16910322      -2.53010021      -0.49165520
H       -4.05776511      -0.49663404      -0.38569275
H       -3.47956358      -2.09701639      -0.59670223
H        5.19026300       2.79815385       0.35295789
H        5.33073706       1.69625428       1.74893670
H        5.80069370       1.10827471       0.13146937
C        5.13976989       1.76730440       0.68027070
N        3.74215420       1.28956536       0.47353442
O        3.56798232       0.09733215       0.27368303
O        2.84054005       2.11087615       0.53866000
12
Properties=species:S:1:pos:R:3 charge=1 charge_a=1 charge_b=0 selection_a=1-5 selection_b=6-12 scaling=0.8 benchmark_Eint=-11.407 benchmark_unit=kcal/mol group=NHk-N pbc="F F F"
N        0.11162086      -3.43490206       0.00000000
H        0.08259561      -2.38472104       0.00000000
H       -0.35875768      -3.79181403      -0.83174951
H       -0.35875768      -3.79181403       0.83174951
H        1.08091621      -3.75249722       0.00000000
H        1.08415135       2.33180835      -0.89357919
H        1.08415135       2.33180835       0.89357919
H       -0.11100845       3.29366123       0.00000000
C        0.46423124       2.37664636       0.00000000
N       -0.51227073       1.26876539       0.00000000
N       -0.16250255       0.12584463       0.00000000
N        0.03431815      -0.99579804       0.00000000
12
Properties=species:S:1:pos:R:3 charge=1 charge_a=1 charge_b=0 selection_a=1-5 selection_b=6-12 scaling=0.85 benchmark_Eint=-15.14 benchmark_unit=kcal/mol group=NHk-N pbc="F F F"
N        0.11162086      -3.43490206       0.00000000
H        0.08259561      -2.38472104       0.00000000
H       -0.35875768      -3.79181403      -0.83174951
H       -0.35875768      -3.79181403       0.83174951
H        1.08091621      -3.75249722       0.00000000
H        1.08113401       2.41861603      -0.89357919
H        1.08113401       2.41861603       0.89357919
H       -0.11402579       3.38046891       0.00000000
C        0.46121390       2.46345404       0.00000000
N       -0.51528807       1.35557308       0.00000000
N       -0.16551989       0.21265232       0.00000000
N        0.03130081      -0.90899035       0.00000000
12
Properties=species:S:1:pos:R:3 charge=1 charge_a=1 charge_b=0 selection_a=1-5 selection_b=6-12 scaling=0.9 benchmark_Eint=-17.355 benchmark_unit=kcal/mol group=NHk-N pbc="F F F"
N        0.11162086      -3.43490206       0.00000000
H        0.08259561      -2.38472104       0.00000000
H       -0.35875768      -3.79181403      -0.83174951
H       -0.35875768      -3.79181403       0.83174951
H        1.08091621      -3.75249722       0.00000000
H        1.07811667       2.50542372      -0.89357919
H        1.07811667       2.50542372       0.89357919
H       -0.11704313       3.46727660       0.00000000
C        0.45819656       2.55026173       0.00000000
N       -0.51830541       1.44238077       0.00000000
N       -0.16853723       0.29946000       0.00000000
N        0.02828347      -0.82218266       0.00000000
12
Properties=species:S:1:pos:R:3 charge=1 charge_a=1 charge_b=0 selection_a=1-5 selection_b=6-12 scaling=0.95 benchmark_Eint=-18.504 benchmark_unit=kcal/mol group=NHk-N pbc="F F F"
N        0.11162086      -3.43490206       0.00000000
H        0.08259561      -2.38472104       0.00000000
H       -0.35875768      -3.79181403      -0.83174951
H       -0.35875768      -3.79181403       0.83174951
H        1.08091621      -3.75249722       0.00000000
H        1.07509932       2.59223141      -0.89357919
H        1.07509932       2.59223141       0.89357919
H       -0.12006047       3.55408429       0.00000000
C        0.45517922       2.63706942       0.00000000
N       -0.52132275       1.52918845       0.00000000
N       -0.17155457       0.38626769       0.00000000
N        0.02526613      -0.73537497       0.00000000
12
Properties=species:S:1:pos:R:3 charge=1 charge_a=1 charge_b=0 selection_a=1-5 selection_b=6-12 scaling=1.0 benchmark_Eint=-18.915 benchmark_unit=kcal/mol group=NHk-N pbc="F F F"
N        0.11162086      -3.43490206       0.00000000
H        0.08259561      -2.38472104       0.00000000
H       -0.35875768      -3.79181403      -0.83174951
H       -0.35875768      -3.79181403       0.83174951
H        1.08091621      -3.75249722       0.00000000
H        1.07208198       2.67903910      -0.89357919
H        1.07208198       2.67903910       0.89357919
H       -0.12307781       3.64089198       0.00000000
C        0.45216187       2.72387711       0.00000000
N       -0.52434009       1.61599614       0.00000000
N       -0.17457191       0.47307538       0.00000000
N        0.02224878      -0.64856729       0.00000000
12
Properties=species:S:1:pos:R:3 charge=1 charge_a=1 charge_b=0 selection_a=1-5 selection_b=6-12 scaling=1.05 benchmark_Eint=-18.821 benchmark_unit=kcal/mol group=NHk-N pbc="F F F"
N        0.11162086      -3.43490206       0.00000000
H        0.08259561      -2.38472104       0.00000000
H       -0.35875768      -3.79181403      -0.83174951
H       -0.35875768      -3.79181403       0.83174951
H        1.08091621      -3.75249722       0.00000000
H        1.06906464       2.76584679      -0.89357919
H        1.06906464       2.76584679       0.89357919
H       -0.12609515       3.72769966       0.00000000
C        0.44914453       2.81068479       0.00000000
N       -0.52735743       1.70280383       0.00000000
N       -0.17758926       0.55988307       0.00000000
N        0.01923144      -0.56175960       0.00000000
12
Properties=species:S:1:pos:R:3 charge=1 charge_a=1 charge_b=0 selection_a=1-5 selection_b=6-12 scaling=1.1 benchmark_Eint=-18.393 benchmark_unit=kcal/mol group=NHk-N pbc="F F F"
N        0.11162086      -3.43490206       0.00000000
H        0.08259561      -2.38472104       0.00000000
H       -0.35875768      -3.79181403      -0.83174951
H       -0.35875768      -3.79181403       0.83174951
H        1.08091621      -3.75249722       0.00000000
H        1.06604730       2.85265447      -0.89357919
H        1.06604730       2.85265447       0.89357919
H       -0.12911249       3.81450735       0.00000000
C        0.44612719       2.89749248       0.00000000
N       -0.53037477       1.78961152       0.00000000
N       -0.18060660       0.64669075       0.00000000
N        0.01621410      -0.47495191       0.00000000
12
Properties=species:S:1:pos:R:3 charge=1 charge_a=1 charge_b=0 selection_a=1-5 selection_b=6-12 scaling=1.25 benchmark_Eint=-16.167 benchmark_unit=kcal/mol group=NHk-N pbc="F F F"
N        0.11162086      -3.43490206       0.00000000
H        0.08259561      -2.38472104       0.00000000
H       -0.35875768      -3.79181403      -0.83174951
H       -0.35875768      -3.79181403       0.83174951
H        1.08091621      -3.75249722       0.00000000
H        1.05699527       3.11307754      -0.89357919
H        1.05699527       3.11307754       0.89357919
H       -0.13816452       4.07493041       0.00000000
C        0.43707517       3.15791554       0.00000000
N       -0.53942680       2.05003458       0.00000000
N       -0.18965862       0.90711382       0.00000000
N        0.00716208      -0.21452885       0.00000000
12
Properties=species:S:1:pos:R:3 charge=1 charge_a=1 charge_b=0 selection_a=1-5 selection_b=6-12 scaling=1.5 benchmark_Eint=-12.164 benchmark_unit=kcal/mol group=NHk-N pbc="F F F"
N        0.11162086      -3.43490206       0.00000000
H        0.08259561      -2.38472104       0.00000000
H       -0.35875768      -3.79181403      -0.83174951
H       -0.35875768      -3.79181403       0.83174951
H        1.08091621      -3.75249722       0.00000000
H        1.04190857       3.54711597      -0.89357919
H        1.04190857       3.54711597       0.89357919
H       -0.15325123       4.50896885       0.00000000
C        0.42198846       3.59195398       0.00000000
N       -0.55451351       2.48407302       0.00000000
N       -0.20474533       1.34115226       0.00000000
N       -0.00792463       0.21950959       0.00000000
12
Properties=species:S:1:pos:R:3 charge=1 charge_a=1 charge_b=0 selection_a=1-5 selection_b=6-12 scaling=2.0 benchmark_Eint=-7.194 benchmark_unit=kcal/mol group=NHk-N pbc="F F F"
N        0.11162086      -3.43490206       0.00000000
H        0.08259561      -2.38472104       0.00000000
H       -0.35875768      -3.79181403      -0.83174951
H       -0.35875768      -3.79181403       0.83174951
H        1.08091621      -3.75249722       0.00000000
H        1.01173515       4.41519285      -0.89357919
H        1.01173515       4.41519285       0.89357919
H       -0.18342464       5.37704573       0.00000000
C        0.39181504       4.46003086       0.00000000
N       -0.58468692       3.35214990       0.00000000
N       -0.23491875       2.20922913       0.00000000
N       -0.03809805       1.08758647       0.00000000
12
Properties=species:S:1:pos:R:3 charge=1 charge_a=1 charge_b=0 selection_a=1-5 selection_b=6-12 scaling=0.8 benchmark_Eint=-22.696 benchmark_unit=kcal/mol group=NHk-N pbc="F F F"
N       -0.14869458      -3.40956760       0.00000000
H       -0.08792293      -2.33248921       0.00000000
H        0.78906048      -3.80788321       0.00000000
H       -0.64555307      -3.72917364      -0.82991665
H       -0.64555307      -3.72917364       0.82991665
H       -1.18031028       2.17352377       0.90014399
H       -0.08338054       3.26620230       0.00000000
H       -1.18031028       2.17352377      -0.90014399
C       -0.59078684       2.31112700       0.00000000
O        0.50828211       1.31708119       0.00000000
C        0.21515062       0.09495037       0.00000000
N        0.00935027      -1.04086719       0.00000000
12
Properties=species:S:1:pos:R:3 charge=1 charge_a=1 charge_b=0 selection_a=1-5 selection_b=6-12 scaling=0.85 benchmark_Eint=-27.158 benchmark_unit=kcal/mol group=NHk-N pbc="F F F"
N       -0.14869458      -3.40956760       0.00000000
H       -0.08792293      -2.33248921       0.00000000
H        0.78906048      -3.80788321       0.00000000
H       -0.64555307      -3.72917364      -0.82991665
H       -0.64555307      -3.72917364       0.82991665
H       -1.17423071       2.25425015       0.90014399
H       -0.07730097       3.34692868       0.00000000
H       -1.17423071       2.25425015      -0.90014399
C       -0.58470727       2.39185338       0.00000000
O        0.51436168       1.39780757       0.00000000
C        0.22123019       0.17567674       0.00000000
N        0.01542984      -0.96014082       0.00000000
12
Properties=species:S:1:pos:R:3 charge=1 charge_a=1 charge_b=0 selection_a=1-5 selection_b=6-12 scaling=0.9 benchmark_Eint=-29.823 benchmark_unit=kcal/mol group=NHk-N pbc="F F F"
N       -0.14869458      -3.40956760       0.00000000
H       -0.08792293      -2.33248921       0.00000000
H        0.78906048      -3.80788321       0.00000000
H       -0.64555307      -3.72917364      -0.82991665
H       -0.64555307      -3.72917364       0.82991665
H       -1.16815113       2.33497653       0.90014399
H       -0.07122139       3.42765506       0.00000000
H       -1.16815113       2.33497653      -0.90014399
C       -0.57862769       2.47257975       0.00000000
O        0.52044126       1.47853394       0.00000000
C        0.22730977       0.25640312       0.00000000
N        0.02150942      -0.87941444       0.00000000
12
Properties=species:S:1:pos:R:3 charge=1 charge_a=1 charge_b=0 selection_a=1-5 selection_b=6-12 scaling=0.95 benchmark_Eint=-31.213 benchmark_unit=kcal/mol group=NHk-N pbc="F F F"
N       -0.14869458      -3.40956760       0.00000000
H       -0.08792293      -2.33248921       0.00000000
H        0.78906048      -3.80788321       0.00000000
H       -0.64555307      -3.72917364      -0.82991665
H       -0.64555307      -3.72917364       0.82991665
H       -1.16207156       2.41570290       0.90014399
H       -0.06514182       3.50838143       0.00000000
H       -1.16207156       2.41570290      -0.90014399
C       -0.57254812       2.55330613       0.00000000
O        0.52652083       1.55926032       0.00000000
C        0.23338934       0.33712950       0.00000000
N        0.02758899      -0.79868807       0.00000000
12
Properties=species:S:1:pos:R:3 charge=1 charge_a=1 charge_b=0 selection_a=1-5 selection_b=6-12 scaling=1.0 benchmark_Eint=-31.698 benchmark_unit=kcal/mol group=NHk-N pbc="F F F"
N       -0.14869458      -3.40956760       0.00000000
H       -0.08792293      -2.33248921       0.00000000
H        0.78906048      -3.80788321       0.00000000
H       -0.64555307      -3.72917364      -0.82991665
H       -0.64555307      -3.72917364       0.82991665
H       -1.15599198       2.49642928       0.90014399
H       -0.05906224       3.58910781       0.00000000
H       -1.15599198       2.49642928      -0.90014399
C       -0.56646854       2.63403250       0.00000000
O        0.53260041       1.63998670       0.00000000
C        0.23946892       0.41785587       0.00000000
N        0.03366857      -0.71796169       0.00000000
12
Properties=species:S:1:pos:R:3 charge=1 charge_a=1 charge_b=0 selection_a=1-5 selection_b=6-12 scaling=1.05 benchmark_Eint=-31.551 benchmark_unit=kcal/mol group=NHk-N pbc="F F F"
N       -0.14869458      -3.40956760       0.00000000
H       -0.08792293      -2.33248921       0.00000000
H        0.78906048      -3.80788321       0.00000000
H       -0.64555307      -3.72917364      -0.82991665
H       -0.64555307      -3.72917364       0.82991665
H       -1.14991241       2.57715565       0.90014399
H       -0.05298267       3.66983418       0.00000000
H       -1.14991241       2.57715565      -0.90014399
C       -0.56038897       2.71475888       0.00000000
O        0.53867998       1.72071307       0.00000000
C        0.24554849       0.49858225       0.00000000
N        0.03974814      -0.63723531       0.00000000
12
Properties=species:S:1:pos:R:3 charge=1 charge_a=1 charge_b=0 selection_a=1-5 selection_b=6-12 scaling=1.1 benchmark_Eint=-30.968 benchmark_unit=kcal/mol group=NHk-N pbc="F F F"
N       -0.14869458      -3.40956760       0.00000000
H       -0.08792293      -2.33248921       0.00000000
H        0.78906048      -3.80788321       0.00000000
H       -0.64555307      -3.72917364      -0.82991665
H       -0.64555307      -3.72917364       0.82991665
H       -1.14383283       2.65788203       0.90014399
H       -0.04690309       3.75056056       0.00000000
H       -1.14383283       2.65788203      -0.90014399
C       -0.55430939       2.79548526       0.00000000
O        0.54475956       1.80143945       0.00000000
C        0.25162807       0.57930862       0.00000000
N        0.04582772      -0.55650894       0.00000000
12
Properties=species:S:1:pos:R:3 charge=1 charge_a=1 charge_b=0 selection_a=1-5 selection_b=6-12 scaling=1.25 benchmark_Eint=-27.881 benchmark_unit=kcal/mol group=NHk-N pbc="F F F"
N       -0.14869458      -3.40956760       0.00000000
H       -0.08792293      -2.33248921       0.00000000
H        0.78906048      -3.80788321       0.00000000
H       -0.64555307      -3.72917364      -0.82991665
H       -0.64555307      -3.72917364       0.82991665
H       -1.12559411       2.90006116       0.90014399
H       -0.02866437       3.99273969       0.00000000
H       -1.12559411       2.90006116      -0.90014399
C       -0.53607067       3.03766438       0.00000000
O        0.56299828       2.04361858       0.00000000
C        0.26986679       0.82148775       0.00000000
N        0.06406644      -0.31432981       0.00000000
12
Properties=species:S:1:pos:R:3 charge=1 charge_a=1 charge_b=0 selection_a=1-5 selection_b=6-12 scaling=1.5 benchmark_Eint=-21.973 benchmark_unit=kcal/mol group=NHk-N pbc="F F F"
N       -0.14869458      -3.40956760       0.00000000
H       -0.08792293      -2.33248921       0.00000000
H        0.78906048      -3.80788321       0.00000000
H       -0.64555307      -3.72917364      -0.82991665
H       -0.64555307      -3.72917364       0.82991665
H       -1.09519624       3.30369304       0.90014399
H        0.00173350       4.39637157       0.00000000
H       -1.09519624       3.30369304      -0.90014399
C       -0.50567279       3.44129626       0.00000000
O        0.59339615       2.44725046       0.00000000
C        0.30026467       1.22511963       0.00000000
N        0.09446431       0.08930207       0.00000000
12
Properties=species:S:1:pos:R:3 charge=1 charge_a=1 charge_b=0 selection_a=1-5 selection_b=6-12 scaling=2.0 benchmark_Eint=-13.868 benchmark_unit=kcal/mol group=NHk-N pbc="F F F"
N       -0.14869458      -3.40956760       0.00000000
H       -0.08792293      -2.33248921       0.00000000
H        0.78906048      -3.80788321       0.00000000
H       -0.64555307      -3.72917364      -0.82991665
H       -0.64555307      -3.72917364       0.82991665
H       -1.03440049       4.11095680       0.90014399
H        0.06252925       5.20363533       0.00000000
H       -1.03440049       4.11095680      -0.90014399
C       -0.44487705       4.24856002       0.00000000
O        0.65419190       3.25451422       0.00000000
C        0.36106041       2.03238339       0.00000000
N        0.15526006       0.89656583       0.00000000
14
Properties=species:S:1:pos:R:3 charge=1 charge_a=1 charge_b=0 selection_a=1-10 selection_b=11-14 scaling=0.8 benchmark_Eint=-12.369 benchmark_unit=kcal/mol group=NHk-N pbc="F F F"
N        0.11147281       0.89054926      -0.13766904
C       -0.83553540      -0.02578790      -0.04832025
N       -0.49563291      -1.29586665       0.18577711
N       -2.12469658       0.29289585      -0.18726303
H        1.11237324       0.63003310      -0.03216380
H       -0.12706738       1.85143592      -0.30789609
H        0.47050437      -1.54679971       0.29417874
H       -1.18237364      -2.02447301       0.25369267
H       -2.40946767       1.23866247      -0.36771256
H       -2.84833468      -0.39936804      -0.11416127
N        2.52507396       0.23194195       0.12105207
H        2.90577708      -0.40032484      -0.57532280
H        3.02656741       1.10684887       0.00281497
H        2.80860440      -0.12824830       1.02631844
14
Properties=species:S:1:pos:R:3 charge=1 charge_a=1 charge_b=0 selection_a=1-10 selection_b=11-14 scaling=0.85 benchmark_Eint=-15.392 benchmark_unit=kcal/mol group=NHk-N pbc="F F F"
N        0.11147281       0.89054926      -0.13766904
C       -0.83553540      -0.02578790      -0.04832025
N       -0.49563291      -1.29586665       0.18577711
N       -2.12469658       0.29289585      -0.18726303
H        1.11237324       0.63003310      -0.03216380
H       -0.12706738       1.85143592      -0.30789609
H        0.47050437      -1.54679971       0.29417874
H       -1.18237364      -2.02447301       0.25369267
H       -2.40946767       1.23866247      -0.36771256
H       -2.84833468      -0.39936804      -0.11416127
N        2.61336775       0.20706125       0.13062806
H        2.99407087      -0.42520554      -0.56574681
H        3.11486121       1.08196817       0.01239096
H        2.89689820      -0.15312900       1.03589443
14
Properties=species:S:1:pos:R:3 charge=1 charge_a=1 charge_b=0 selection_a=1-10 selection_b=11-14 scaling=0.9 benchmark_Eint=-17.151 benchmark_unit=kcal/mol group=NHk-N pbc="F F F"
N        0.11147281       0.89054926      -0.13766904
C       -0.83553540      -0.02578790      -0.04832025
N       -0.49563291      -1.29586665       0.18577711
N       -2.12469658       0.29289585      -0.18726303
H        1.11237324       0.63003310      -0.03216380
H       -0.12706738       1.85143592      -0.30789609
H        0.47050437      -1.54679971       0.29417874
H       -1.18237364      -2.02447301       0.25369267
H       -2.40946767       1.23866247      -0.36771256
H       -2.84833468      -0.39936804      -0.11416127
N        2.70166155       0.18218056       0.14020405
H        3.08236467      -0.45008624      -0.55617081
H        3.20315500       1.05708748       0.02196695
H        2.98519199      -0.17800969       1.04547043
14
Properties=species:S:1:pos:R:3 charge=1 charge_a=1 charge_b=0 selection_a=1-10 selection_b=11-14 scaling=0.95 benchmark_Eint=-18.019 benchmark_unit=kcal/mol group=NHk-N pbc="F F F"
N        0.11147281       0.89054926      -0.13766904
C       -0.83553540      -0.02578790      -0.04832025
N       -0.49563291      -1.29586665       0.18577711
N       -2.12469658       0.29289585      -0.18726303
H        1.11237324       0.63003310      -0.03216380
H       -0.12706738       1.85143592      -0.30789609
H        0.47050437      -1.54679971       0.29417874
H       -1.18237364      -2.02447301       0.25369267
H       -2.40946767       1.23866247      -0.36771256
H       -2.84833468      -0.39936804      -0.11416127
N        2.78995534       0.15729986       0.14978004
H        3.17065846      -0.47496693      -0.54659482
H        3.29144880       1.03220678       0.03154294
H        3.07348579      -0.20289039       1.05504642
14
Properties=species:S:1:pos:R:3 charge=1 charge_a=1 charge_b=0 selection_a=1-10 selection_b=11-14 scaling=1.0 benchmark_Eint=-18.269 benchmark_unit=kcal/mol group=NHk-N pbc="F F F"
N        0.11147281       0.89054926      -0.13766904
C       -0.83553540      -0.02578790      -0.04832025
N       -0.49563291      -1.29586665       0.18577711
N       -2.12469658       0.29289585      -0.18726303
H        1.11237324       0.63003310      -0.03216380
H       -0.12706738       1.85143592      -0.30789609
H        0.47050437      -1.54679971       0.29417874
H       -1.18237364      -2.02447301       0.25369267
H       -2.40946767       1.23866247      -0.36771256
H       -2.84833468      -0.39936804      -0.11416127
N        2.87824914       0.13241916       0.15935604
H        3.25895226      -0.49984763      -0.53701883
H        3.37974259       1.00732608       0.04111893
H        3.16177958      -0.22777109       1.06462241
14
Properties=species:S:1:pos:R:3 charge=1 charge_a=1 charge_b=0 selection_a=1-10 selection_b=11-14 scaling=1.05 benchmark_Eint=-18.095 benchmark_unit=kcal/mol group=NHk-N pbc="F F F"
N        0.11147281       0.89054926      -0.13766904
C       -0.83553540      -0.02578790      -0.04832025
N       -0.49563291      -1.29586665       0.18577711
N       -2.12469658       0.29289585      -0.18726303
H        1.11237324       0.63003310      -0.03216380
H       -0.12706738       1.85143592      -0.30789609
H        0.47050437      -1.54679971       0.29417874
H       -1.18237364      -2.02447301       0.25369267
H       -2.40946767       1.23866247      -0.36771256
H       -2.84833468      -0.39936804      -0.11416127
N        2.96654293       0.10753846       0.16893203
H        3.34724605      -0.52472833      -0.52744284
H        3.46803639       0.98244539       0.05069492
H        3.25007338      -0.25265179       1.07419840
14
Properties=species:S:1:pos:R:3 charge=1 charge_a=1 charge_b=0 selection_a=1-10 selection_b=11-14 scaling=1.1 benchmark_Eint=-17.638 benchmark_unit=kcal/mol group=NHk-N pbc="F F F"
N        0.11147281       0.89054926      -0.13766904
C       -0.83553540      -0.02578790      -0.04832025
N       -0.49563291      -1.29586665       0.18577711
N       -2.12469658       0.29289585      -0.18726303
H        1.11237324       0.63003310      -0.03216380
H       -0.12706738       1.85143592      -0.30789609
H        0.47050437      -1.54679971       0.29417874
H       -1.18237364      -2.02447301       0.25369267
H       -2.40946767       1.23866247      -0.36771256
H       -2.84833468      -0.39936804      -0.11416127
N        3.05483673       0.08265777       0.17850802
H        3.43553985      -0.54960902      -0.51786685
H        3.55633018       0.95756469       0.06027092
H        3.33836717      -0.27753248       1.08377440
14
Properties=species:S:1:pos:R:3 charge=1 charge_a=1 charge_b=0 selection_a=1-10 selection_b=11-14 scaling=1.25 benchmark_Eint=-15.455 benchmark_unit=kcal/mol group=NHk-N pbc="F F F"
N        0.11147281       0.89054926      -0.13766904
C       -0.83553540      -0.02578790      -0.04832025
N       -0.49563291      -1.29586665       0.18577711
N       -2.12469658       0.29289585      -0.18726303
H        1.11237324       0.63003310      -0.03216380
H       -0.12706738       1.85143592      -0.30789609
H        0.47050437      -1.54679971       0.29417874
H       -1.18237364      -2.02447301       0.25369267
H       -2.40946767       1.23866247      -0.36771256
H       -2.84833468      -0.39936804      -0.11416127
N        3.31971812       0.00801568       0.20723600
H        3.70042123      -0.62425111      -0.48913887
H        3.82121157       0.88292260       0.08899889
H        3.60324856      -0.35217457       1.11250237
14
Properties=species:S:1:pos:R:3 charge=1 charge_a=1 charge_b=0 selection_a=1-10 selection_b=11-14 scaling=1.5 benchmark_Eint=-11.544 benchmark_unit=kcal/mol group=NHk-N pbc="F F F"
N        0.11147281       0.89054926      -0.13766904
C       -0.83553540      -0.02578790      -0.04832025
N       -0.49563291      -1.29586665       0.18577711
N       -2.12469658       0.29289585      -0.18726303
H        1.11237324       0.63003310      -0.03216380
H       -0.12706738       1.85143592      -0.30789609
H        0.47050437      -1.54679971       0.29417874
H       -1.18237364      -2.02447301       0.25369267
H       -2.40946767       1.23866247      -0.36771256
H       -2.84833468      -0.39936804      -0.11416127
N        3.76118709      -0.11638781       0.25511595
H        4.14189021      -0.74865460      -0.44125891
H        4.26268054       0.75851911       0.13687885
H        4.04471754      -0.47657806       1.16038233
14
Properties=species:S:1:pos:R:3 charge=1 charge_a=1 charge_b=0 selection_a=1-10 selection_b=11-14 scaling=2.0 benchmark_Eint=-6.554 benchmark_unit=kcal/mol group=NHk-N pbc="F F F"
N        0.11147281       0.89054926      -0.13766904
C       -0.83553540      -0.02578790      -0.04832025
N       -0.49563291      -1.29586665       0.18577711
N       -2.12469658       0.29289585      -0.18726303
H        1.11237324       0.63003310      -0.03216380
H       -0.12706738       1.85143592      -0.30789609
H        0.47050437      -1.54679971       0.29417874
H       -1.18237364      -2.02447301       0.25369267
H       -2.40946767       1.23866247      -0.36771256
H       -2.84833468      -0.39936804      -0.11416127
N        4.64412504      -0.36519477       0.35087587
H        5.02482816      -0.99746157      -0.34549899
H        5.14561849       0.50971215       0.23263877
H        4.92765549      -0.72538502       1.25614225
20
Properties=species:S:1:pos:R:3 charge=1 charge_a=1 charge_b=0 selection_a=1-10 selection_b=11-20 scaling=0.8 benchmark_Eint=-10.676 benchmark_unit=kcal/mol group=NHk-N pbc="F F F"
N       -1.41131479       0.01596808       0.73871027
C       -1.77226987      -0.85474551      -0.19095634
N       -0.84907409      -1.29307020      -1.04715938
N       -3.02957036      -1.29073637      -0.28201871
H       -0.42755449       0.31204841       0.76776844
H       -2.07215419       0.38026950       1.40103369
H        0.09533200      -0.95193213      -0.96561670
H       -1.06282870      -1.96139578      -1.76458589
H       -3.73650876      -0.97768138       0.35885230
H       -3.30738392      -1.94656393      -0.99003183
H        1.48132084      -0.29628778       2.46503000
H        2.94865404      -0.10205673       1.46030725
H        1.80237733      -1.44776108       1.17533554
H        1.46552035       2.06633276      -1.92370221
H       -0.06258356       1.85654126      -1.00566749
H        1.09953810       3.16048178      -0.60861530
C        1.90361142      -0.40178179       1.46553746
N        1.10912021       0.41511746       0.54442183
N        1.75277281       1.29154210      -0.03245535
C        0.99269005       2.12907463      -0.94393556
20
Properties=species:S:1:pos:R:3 charge=1 charge_a=1 charge_b=0 selection_a=1-10 selection_b=11-20 scaling=0.85 benchmark_Eint=-13.42 benchmark_unit=kcal/mol group=NHk-N pbc="F F F"
N       -1.41131479       0.01596808       0.73871027
C       -1.77226987      -0.85474551      -0.19095634
N       -0.84907409      -1.29307020      -1.04715938
N       -3.02957036      -1.29073637      -0.28201871
H       -0.42755449       0.31204841       0.76776844
H       -2.07215419       0.38026950       1.40103369
H        0.09533200      -0.95193213      -0.96561670
H       -1.06282870      -1.96139578      -1.76458589
H       -3.73650876      -0.97768138       0.35885230
H       -3.30738392      -1.94656393      -0.99003183
H        1.57736301      -0.28984596       2.45107084
H        3.04469621      -0.09561491       1.44634809
H        1.89841950      -1.44131926       1.16137637
H        1.56156252       2.07277458      -1.93766138
H        0.03345861       1.86298308      -1.01962666
H        1.19558027       3.16692359      -0.62257446
C        1.99965359      -0.39533997       1.45157830
N        1.20516238       0.42155928       0.53046267
N        1.84881498       1.29798392      -0.04641451
C        1.08873222       2.13551644      -0.95789472
20
Properties=species:S:1:pos:R:3 charge=1 charge_a=1 charge_b=0 selection_a=1-10 selection_b=11-20 scaling=0.9 benchmark_Eint=-15.035 benchmark_unit=kcal/mol group=NHk-N pbc="F F F"
N       -1.41131479       0.01596808       0.73871027
C       -1.77226987      -0.85474551      -0.19095634
N       -0.84907409      -1.29307020      -1.04715938
N       -3.02957036      -1.29073637      -0.28201871
H       -0.42755449       0.31204841       0.76776844
H       -2.07215419       0.38026950       1.40103369
H        0.09533200      -0.95193213      -0.96561670
H       -1.06282870      -1.96139578      -1.76458589
H       -3.73650876      -0.97768138       0.35885230
H       -3.30738392      -1.94656393      -0.99003183
H        1.67340518      -0.28340415       2.43711168
H        3.14073838      -0.08917310       1.43238893
H        1.99446167      -1.43487745       1.14741721
H        1.65760468       2.07921640      -1.95162054
H        0.12950078       1.86942489      -1.03358582
H        1.29162244       3.17336541      -0.63653363
C        2.09569576      -0.38889816       1.43761914
N        1.30120455       0.42800109       0.51650351
N        1.94485715       1.30442573      -0.06037367
C        1.18477439       2.14195826      -0.97185389
20
Properties=species:S:1:pos:R:3 charge=1 charge_a=1 charge_b=0 selection_a=1-10 selection_b=11-20 scaling=0.95 benchmark_Eint=-15.856 benchmark_unit=kcal/mol group=NHk-N pbc="F F F"
N       -1.41131479       0.01596808       0.73871027
C       -1.77226987      -0.85474551      -0.19095634
N       -0.84907409      -1.29307020      -1.04715938
N       -3.02957036      -1.29073637      -0.28201871
H       -0.42755449       0.31204841       0.76776844
H       -2.07215419       0.38026950       1.40103369
H        0.09533200      -0.95193213      -0.96561670
H       -1.06282870      -1.96139578      -1.76458589
H       -3.73650876      -0.97768138       0.35885230
H       -3.30738392      -1.94656393      -0.99003183
H        1.76944735      -0.27696233       2.42315251
H        3.23678054      -0.08273128       1.41842976
H        2.09050384      -1.42843563       1.13345805
H        1.75364685       2.08565821      -1.96557970
H        0.22554294       1.87586671      -1.04754498
H        1.38766461       3.17980722      -0.65049279
C        2.19173793      -0.38245634       1.42365998
N        1.39724672       0.43444291       0.50254434
N        2.04089932       1.31086755      -0.07433284
C        1.28081656       2.14840007      -0.98581305
20
Properties=species:S:1:pos:R:3 charge=1 charge_a=1 charge_b=0 selection_a=1-10 selection_b=11-20 scaling=1.0 benchmark_Eint=-16.121 benchmark_unit=kcal/mol group=NHk-N pbc="F F F"
N       -1.41131479       0.01596808       0.73871027
C       -1.77226987      -0.85474551      -0.19095634
N       -0.84907409      -1.29307020      -1.04715938
N       -3.02957036      -1.29073637      -0.28201871
H       -0.42755449       0.31204841       0.76776844
H       -2.07215419       0.38026950       1.40103369
H        0.09533200      -0.95193213      -0.96561670
H       -1.06282870      -1.96139578      -1.76458589
H       -3.73650876      -0.97768138       0.35885230
H       -3.30738392      -1.94656393      -0.99003183
H        1.86548952      -0.27052052       2.40919335
H        3.33282271      -0.07628947       1.40447060
H        2.18654601      -1.42199382       1.11949888
H        1.84968902       2.09210003      -1.97953886
H        0.32158511       1.88230852      -1.06150415
H        1.48370678       3.18624904      -0.66445195
C        2.28778010      -0.37601453       1.40970081
N        1.49328889       0.44088472       0.48858518
N        2.13694149       1.31730936      -0.08829200
C        1.37685873       2.15484189      -0.99977221
20
Properties=species:S:1:pos:R:3 charge=1 charge_a=1 charge_b=0 selection_a=1-10 selection_b=11-20 scaling=1.05 benchmark_Eint=-16.004 benchmark_unit=kcal/mol group=NHk-N pbc="F F F"
N       -1.41131479       0.01596808       0.73871027
C       -1.77226987      -0.85474551      -0.19095634
N       -0.84907409      -1.29307020      -1.04715938
N       -3.02957036      -1.29073637      -0.28201871
H       -0.42755449       0.31204841       0.76776844
H       -2.07215419       0.38026950       1.40103369
H        0.09533200      -0.95193213      -0.96561670
H       -1.06282870      -1.96139578      -1.76458589
H       -3.73650876      -0.97768138       0.35885230
H       -3.30738392      -1.94656393      -0.99003183
H        1.96153168      -0.26407870       2.39523419
H        3.42886488      -0.06984765       1.39051144
H        2.28258817      -1.41555200       1.10553972
H        1.94573119       2.09854184      -1.99349803
H        0.41762728       1.88875034      -1.07546331
H        1.57974895       3.19269085      -0.67841112
C        2.38382227      -0.36957271       1.39574165
N        1.58933106       0.44732654       0.47462602
N        2.23298366       1.32375118      -0.10225116
C        1.47290090       2.16128371      -1.01373138
20
Properties=species:S:1:pos:R:3 charge=1 charge_a=1 charge_b=0 selection_a=1-10 selection_b=11-20 scaling=1.1 benchmark_Eint=-15.625 benchmark_unit=kcal/mol group=NHk-N pbc="F F F"
N       -1.41131479       0.01596808       0.73871027
C       -1.77226987      -0.85474551      -0.19095634
N       -0.84907409      -1.29307020      -1.04715938
N       -3.02957036      -1.29073637      -0.28201871
H       -0.42755449       0.31204841       0.76776844
H       -2.07215419       0.38026950       1.40103369
H        0.09533200      -0.95193213      -0.96561670
H       -1.06282870      -1.96139578      -1.76458589
H       -3.73650876      -0.97768138       0.35885230
H       -3.30738392      -1.94656393      -0.99003183
H        2.05757385      -0.25763689       2.38127502
H        3.52490705      -0.06340583       1.37655228
H        2.37863034      -1.40911019       1.09158056
H        2.04177336       2.10498366      -2.00745719
H        0.51366945       1.89519215      -1.08942247
H        1.67579112       3.19913267      -0.69237028
C        2.47986443      -0.36313090       1.38178249
N        1.68537323       0.45376836       0.46066685
N        2.32902583       1.33019299      -0.11621033
C        1.56894307       2.16772552      -1.02769054
20
Properties=species:S:1:pos:R:3 charge=1 charge_a=1 charge_b=0 selection_a=1-10 selection_b=11-20 scaling=1.25 benchmark_Eint=-13.702 benchmark_unit=kcal/mol group=NHk-N pbc="F F F"
N       -1.41131479       0.01596808       0.73871027
C       -1.77226987      -0.85474551      -0.19095634
N       -0.84907409      -1.29307020      -1.04715938
N       -3.02957036      -1.29073637      -0.28201871
H       -0.42755449       0.31204841       0.76776844
H       -2.07215419       0.38026950       1.40103369
H        0.09533200      -0.95193213      -0.96561670
H       -1.06282870      -1.96139578      -1.76458589
H       -3.73650876      -0.97768138       0.35885230
H       -3.30738392      -1.94656393      -0.99003183
H        2.34570036      -0.23831144       2.33939753
H        3.81303356      -0.04408039       1.33467479
H        2.66675685      -1.38978474       1.04970307
H        2.32989987       2.12430911      -2.04933468
H        0.80179596       1.91451760      -1.13129996
H        1.96391763       3.21845812      -0.73424777
C        2.76799094      -0.34380545       1.33990500
N        1.97349974       0.47309380       0.41878937
N        2.61715234       1.34951844      -0.15808781
C        1.85706957       2.18705097      -1.06956803
20
Properties=species:S:1:pos:R:3 charge=1 charge_a=1 charge_b=0 selection_a=1-10 selection_b=11-20 scaling=1.5 benchmark_Eint=-10.056 benchmark_unit=kcal/mol group=NHk-N pbc="F F F"
N       -1.41131479       0.01596808       0.73871027
C       -1.77226987      -0.85474551      -0.19095634
N       -0.84907409      -1.29307020      -1.04715938
N       -3.02957036      -1.29073637      -0.28201871
H       -0.42755449       0.31204841       0.76776844
H       -2.07215419       0.38026950       1.40103369
H        0.09533200      -0.95193213      -0.96561670
H       -1.06282870      -1.96139578      -1.76458589
H       -3.73650876      -0.97768138       0.35885230
H       -3.30738392      -1.94656393      -0.99003183
H        2.82591121      -0.20610236       2.26960172
H        4.29324441      -0.01187131       1.26487897
H        3.14696770      -1.35757566       0.97990725
H        2.81011072       2.15651818      -2.11913049
H        1.28200681       1.94672668      -1.20109578
H        2.44412847       3.25066719      -0.80404358
C        3.24820179      -0.31159637       1.27010918
N        2.45371058       0.50530288       0.34899355
N        3.09736318       1.38172752      -0.22788363
C        2.33728042       2.21926004      -1.13936384
20
Properties=species:S:1:pos:R:3 charge=1 charge_a=1 charge_b=0 selection_a=1-10 selection_b=11-20 scaling=2.0 benchmark_Eint=-5.09 benchmark_unit=kcal/mol group=NHk-N pbc="F F F"
N       -1.41131479       0.01596808       0.73871027
C       -1.77226987      -0.85474551      -0.19095634
N       -0.84907409      -1.29307020      -1.04715938
N       -3.02957036      -1.29073637      -0.28201871
H       -0.42755449       0.31204841       0.76776844
H       -2.07215419       0.38026950       1.40103369
H        0.09533200      -0.95193213      -0.96561670
H       -1.06282870      -1.96139578      -1.76458589
H       -3.73650876      -0.97768138       0.35885230
H       -3.30738392      -1.94656393      -0.99003183
H        3.78633290      -0.14168421       2.13001009
H        5.25366610       0.05254685       1.12528734
H        4.10738939      -1.29315751       0.84031562
H        3.77053241       2.22093634      -2.25872212
H        2.24242850       2.01114483      -1.34068741
H        3.40455017       3.31508535      -0.94363521
C        4.20862348      -0.24717821       1.13051755
N        3.41413228       0.56972104       0.20940192
N        4.05778487       1.44614567      -0.36747526
C        3.29770211       2.28367820      -1.27895548
16
Properties=species:S:1:pos:R:3 charge=1 charge_a=1 charge_b=0 selection_a=1-10 selection_b=11-16 scaling=0.8 benchmark_Eint=-14.768 benchmark_unit=kcal/mol group=NHk-N pbc="F F F"
C        0.00014340       0.71661842       2.90232452
C        0.00021157       1.13469848       1.61051336
N        0.00005491       0.00739029       0.82077643
H        0.00005719      -0.00617546      -0.22084775
C       -0.00010612      -1.07070178       1.59038328
N       -0.00005421      -0.66201579       2.86105414
H        0.00021689       1.26456879       3.82490605
H        0.00035504       2.12374831       1.19420110
H       -0.00025280      -2.09088587       1.25416765
H       -0.00014657      -1.27393636       3.66176192
H       -0.00104014      -0.99753696      -4.59964541
H        0.88741249       0.53755863      -4.57376289
H       -0.88678658       0.53912090      -4.57363177
C       -0.00011636       0.02028812      -4.21352137
C       -0.00003850      -0.00403253      -2.76446681
N       -0.00001505      -0.02292836      -1.61834113
16
Properties=species:S:1:pos:R:3 charge=1 charge_a=1 charge_b=0 selection_a=1-10 selection_b=11-16 scaling=0.85 benchmark_Eint=-18.402 benchmark_unit=kcal/mol group=NHk-N pbc="F F F"
C        0.00014340       0.71661842       2.90232452
C        0.00021157       1.13469848       1.61051336
N        0.00005491       0.00739029       0.82077643
H        0.00005719      -0.00617546      -0.22084775
C       -0.00010612      -1.07070178       1.59038328
N       -0.00005421      -0.66201579       2.86105414
H        0.00021689       1.26456879       3.82490605
H        0.00035504       2.12374831       1.19420110
H       -0.00025280      -2.09088587       1.25416765
H       -0.00014657      -1.27393636       3.66176192
H       -0.00104465      -0.99858402      -4.68698874
H        0.88740797       0.53651157      -4.66110622
H       -0.88679109       0.53807384      -4.66097511
C       -0.00012088       0.01924106      -4.30086471
C       -0.00004302      -0.00507959      -2.85181014
N       -0.00001957      -0.02397542      -1.70568447
16
Properties=species:S:1:pos:R:3 charge=1 charge_a=1 charge_b=0 selection_a=1-10 selection_b=11-16 scaling=0.9 benchmark_Eint=-20.533 benchmark_unit=kcal/mol group=NHk-N pbc="F F F"
C        0.00014340       0.71661842       2.90232452
C        0.00021157       1.13469848       1.61051336
N        0.00005491       0.00739029       0.82077643
H        0.00005719      -0.00617546      -0.22084775
C       -0.00010612      -1.07070178       1.59038328
N       -0.00005421      -0.66201579       2.86105414
H        0.00021689       1.26456879       3.82490605
H        0.00035504       2.12374831       1.19420110
H       -0.00025280      -2.09088587       1.25416765
H       -0.00014657      -1.27393636       3.66176192
H       -0.00104917      -0.99963108      -4.77433208
H        0.88740346       0.53546452      -4.74844956
H       -0.88679561       0.53702679      -4.74831844
C       -0.00012539       0.01819400      -4.38820804
C       -0.00004753      -0.00612664      -2.93915348
N       -0.00002408      -0.02502247      -1.79302780
16
Properties=species:S:1:pos:R:3 charge=1 charge_a=1 charge_b=0 selection_a=1-10 selection_b=11-16 scaling=0.95 benchmark_Eint=-21.612 benchmark_unit=kcal/mol group=NHk-N pbc="F F F"
C        0.00014340       0.71661842       2.90232452
C        0.00021157       1.13469848       1.61051336
N        0.00005491       0.00739029       0.82077643
H        0.00005719      -0.00617546      -0.22084775
C       -0.00010612      -1.07070178       1.59038328
N       -0.00005421      -0.66201579       2.86105414
H        0.00021689       1.26456879       3.82490605
H        0.00035504       2.12374831       1.19420110
H       -0.00025280      -2.09088587       1.25416765
H       -0.00014657      -1.27393636       3.66176192
H       -0.00105368      -1.00067813      -4.86167542
H        0.88739894       0.53441746      -4.83579290
H       -0.88680013       0.53597973      -4.83566178
C       -0.00012991       0.01714695      -4.47555138
C       -0.00005205      -0.00717370      -3.02649682
N       -0.00002860      -0.02606953      -1.88037114
16
Properties=species:S:1:pos:R:3 charge=1 charge_a=1 charge_b=0 selection_a=1-10 selection_b=11-16 scaling=1.0 benchmark_Eint=-21.958 benchmark_unit=kcal/mol group=NHk-N pbc="F F F"
C        0.00014340       0.71661842       2.90232452
C        0.00021157       1.13469848       1.61051336
N        0.00005491       0.00739029       0.82077643
H        0.00005719      -0.00617546      -0.22084775
C       -0.00010612      -1.07070178       1.59038328
N       -0.00005421      -0.66201579       2.86105414
H        0.00021689       1.26456879       3.82490605
H        0.00035504       2.12374831       1.19420110
H       -0.00025280      -2.09088587       1.25416765
H       -0.00014657      -1.27393636       3.66176192
H       -0.00105820      -1.00172519      -4.94901875
H        0.88739443       0.53337040      -4.92313623
H       -0.88680464       0.53493267      -4.92300512
C       -0.00013442       0.01609989      -4.56289472
C       -0.00005656      -0.00822076      -3.11384015
N       -0.00003311      -0.02711659      -1.96771448
16
Properties=species:S:1:pos:R:3 charge=1 charge_a=1 charge_b=0 selection_a=1-10 selection_b=11-16 scaling=1.05 benchmark_Eint=-21.804 benchmark_unit=kcal/mol group=NHk-N pbc="F F F"
C        0.00014340       0.71661842       2.90232452
C        0.00021157       1.13469848       1.61051336
N        0.00005491       0.00739029       0.82077643
H        0.00005719      -0.00617546      -0.22084775
C       -0.00010612      -1.07070178       1.59038328
N       -0.00005421      -0.66201579       2.86105414
H        0.00021689       1.26456879       3.82490605
H        0.00035504       2.12374831       1.19420110
H       -0.00025280      -2.09088587       1.25416765
H       -0.00014657      -1.27393636       3.66176192
H       -0.00106271      -1.00277225      -5.03636209
H        0.88738991       0.53232335      -5.01047957
H       -0.88680916       0.53388562      -5.01034845
C       -0.00013894       0.01505283      -4.65023805
C       -0.00006108      -0.00926781      -3.20118349
N       -0.00003763      -0.02816364      -2.05505781
16
Properties=species:S:1:pos:R:3 charge=1 charge_a=1 charge_b=0 selection_a=1-10 selection_b=11-16 scaling=1.1 benchmark_Eint=-21.318 benchmark_unit=kcal/mol group=NHk-N pbc="F F F"
C        0.00014340       0.71661842       2.90232452
C        0.00021157       1.13469848       1.61051336
N        0.00005491       0.00739029       0.82077643
H        0.00005719      -0.00617546      -0.22084775
C       -0.00010612      -1.07070178       1.59038328
N       -0.00005421      -0.66201579       2.86105414
H        0.00021689       1.26456879       3.82490605
H        0.00035504       2.12374831       1.19420110
H       -0.00025280      -2.09088587       1.25416765
H       -0.00014657      -1.27393636       3.66176192
H       -0.00106723      -1.00381930      -5.12370542
H        0.88738540       0.53127629      -5.09782291
H       -0.88681367       0.53283856      -5.09769179
C       -0.00014345       0.01400578      -4.73758139
C       -0.00006559      -0.01031487      -3.28852683
N       -0.00004214      -0.02921070      -2.14240115
16
Properties=species:S:1:pos:R:3 charge=1 charge_a=1 charge_b=0 selection_a=1-10 selection_b=11-16 scaling=1.25 benchmark_Eint=-18.91 benchmark_unit=kcal/mol group=NHk-N pbc="F F F"
C        0.00014340       0.71661842       2.90232452
C        0.00021157       1.13469848       1.61051336
N        0.00005491       0.00739029       0.82077643
H        0.00005719      -0.00617546      -0.22084775
C       -0.00010612      -1.07070178       1.59038328
N       -0.00005421      -0.66201579       2.86105414
H        0.00021689       1.26456879       3.82490605
H        0.00035504       2.12374831       1.19420110
H       -0.00025280      -2.09088587       1.25416765
H       -0.00014657      -1.27393636       3.66176192
H       -0.00108077      -1.00696047      -5.38573543
H        0.88737185       0.52813512      -5.35985291
H       -0.88682721       0.52969739      -5.35972180
C       -0.00015700       0.01086461      -4.99961140
C       -0.00007914      -0.01345604      -3.55055684
N       -0.00005569      -0.03235187      -2.40443116
16
Properties=species:S:1:pos:R:3 charge=1 charge_a=1 charge_b=0 selection_a=1-10 selection_b=11-16 scaling=1.5 benchmark_Eint=-14.598 benchmark_unit=kcal/mol group=NHk-N pbc="F F F"
C        0.00014340       0.71661842       2.90232452
C        0.00021157       1.13469848       1.61051336
N        0.00005491       0.00739029       0.82077643
H        0.00005719      -0.00617546      -0.22084775
C       -0.00010612      -1.07070178       1.59038328
N       -0.00005421      -0.66201579       2.86105414
H        0.00021689       1.26456879       3.82490605
H        0.00035504       2.12374831       1.19420110
H       -0.00025280      -2.09088587       1.25416765
H       -0.00014657      -1.27393636       3.66176192
H       -0.00110335      -1.01219576      -5.82245212
H        0.88734928       0.52289984      -5.79656960
H       -0.88684979       0.52446211      -5.79643848
C       -0.00017957       0.00562933      -5.43632808
C       -0.00010171      -0.01869132      -3.98727352
N       -0.00007826      -0.03758715      -2.84114784
16
Properties=species:S:1:pos:R:3 charge=1 charge_a=1 charge_b=0 selection_a=1-10 selection_b=11-16 scaling=2.0 benchmark_Eint=-9.096 benchmark_unit=kcal/mol group=NHk-N pbc="F F F"
C        0.00014340       0.71661842       2.90232452
C        0.00021157       1.13469848       1.61051336
N        0.00005491       0.00739029       0.82077643
H        0.00005719      -0.00617546      -0.22084775
C       -0.00010612      -1.07070178       1.59038328
N       -0.00005421      -0.66201579       2.86105414
H        0.00021689       1.26456879       3.82490605
H        0.00035504       2.12374831       1.19420110
H       -0.00025280      -2.09088587       1.25416765
H       -0.00014657      -1.27393636       3.66176192
H       -0.00114850      -1.02266632      -6.69588548
H        0.88730413       0.51242927      -6.67000296
H       -0.88689494       0.51399154      -6.66987185
C       -0.00022472      -0.00484124      -6.30976145
C       -0.00014686      -0.02916189      -4.86070688
N       -0.00012341      -0.04805772      -3.71458121
24
Properties=species:S:1:pos:R:3 charge=1 charge_a=1 charge_b=0 selection_a=1-10 selection_b=11-24 scaling=0.8 benchmark_Eint=-15.892 benchmark_unit=kcal/mol group=NHk-N pbc="F F F"
C       -2.89740858       0.26163353      -0.71851922
C       -1.57716083       0.13813162      -0.42605398
N       -1.45142628       0.29113443       0.93836895
H       -0.54277239       0.24678224       1.46947804
C       -2.64632833       0.50124178       1.47114458
N       -3.54130648       0.48734123       0.48106372
H       -3.42430201       0.21026422      -1.65188849
H       -0.72728386      -0.04232896      -1.05670826
H       -2.86146585       0.65560764       2.51222705
H       -4.53288429       0.62182886       0.59998788
H        1.05711579      -2.22429337       0.63297387
H        2.12824793      -0.65209137      -3.20431841
H        1.61090528      -2.58039757      -1.74012333
H        1.56769829       1.99886663       0.11262989
H        1.01272423      -0.65167647       2.46748512
H        2.12080103       1.63646457      -2.25967794
H        1.20854930       0.96669901       2.26806185
C        1.88432575      -0.49448888      -2.16455206
C        1.59311509      -1.57643471      -1.34190123
C        1.28450325      -1.37839962      -0.00229972
C        1.27127195      -0.08926817       0.52267625
C        1.57164839       0.99652130      -0.29492517
C        1.87926157       0.79007578      -1.63348121
N        0.81360478       0.13053918       1.85721519
24
Properties=species:S:1:pos:R:3 charge=1 charge_a=1 charge_b=0 selection_a=1-10 selection_b=11-24 scaling=0.85 benchmark_Eint=-19.772 benchmark_unit=kcal/mol group=NHk-N pbc="F F F"
C       -2.89740858       0.26163353      -0.71851922
C       -1.57716083       0.13813162      -0.42605398
N       -1.45142628       0.29113443       0.93836895
H       -0.54277239       0.24678224       1.46947804
C       -2.64632833       0.50124178       1.47114458
N       -3.54130648       0.48734123       0.48106372
H       -3.42430201       0.21026422      -1.65188849
H       -0.72728386      -0.04232896      -1.05670826
H       -2.86146585       0.65560764       2.51222705
H       -4.53288429       0.62182886       0.59998788
H        1.14188936      -2.23155856       0.65720744
H        2.21302150      -0.65935656      -3.18008484
H        1.69567885      -2.58766276      -1.71588976
H        1.65247186       1.99160143       0.13686346
H        1.09749780      -0.65894166       2.49171869
H        2.20557460       1.62919938      -2.23544437
H        1.29332287       0.95943382       2.29229542
C        1.96909932      -0.50175407      -2.14031848
C        1.67788867      -1.58369991      -1.31766766
C        1.36927683      -1.38566481       0.02193385
C        1.35604552      -0.09653336       0.54690982
C        1.65642197       0.98925611      -0.27069160
C        1.96403514       0.78281059      -1.60924764
N        0.89837835       0.12327399       1.88144877
24
Properties=species:S:1:pos:R:3 charge=1 charge_a=1 charge_b=0 selection_a=1-10 selection_b=11-24 scaling=0.9 benchmark_Eint=-22.01 benchmark_unit=kcal/mol group=NHk-N pbc="F F F"
C       -2.89740858       0.26163353      -0.71851922
C       -1.57716083       0.13813162      -0.42605398
N       -1.45142628       0.29113443       0.93836895
H       -0.54277239       0.24678224       1.46947804
C       -2.64632833       0.50124178       1.47114458
N       -3.54130648       0.48734123       0.48106372
H       -3.42430201       0.21026422      -1.65188849
H       -0.72728386      -0.04232896      -1.05670826
H       -2.86146585       0.65560764       2.51222705
H       -4.53288429       0.62182886       0.59998788
H        1.22666294      -2.23882375       0.68144101
H        2.29779508      -0.66662175      -3.15585127
H        1.78045242      -2.59492795      -1.69165619
H        1.73724543       1.98433624       0.16109703
H        1.18227138      -0.66620685       2.51595227
H        2.29034817       1.62193419      -2.21121079
H        1.37809644       0.95216862       2.31652899
C        2.05387289      -0.50901926      -2.11608491
C        1.76266224      -1.59096510      -1.29343409
C        1.45405040      -1.39293000       0.04616743
C        1.44081910      -0.10379855       0.57114339
C        1.74119554       0.98199092      -0.24645803
C        2.04880871       0.77554539      -1.58501406
N        0.98315192       0.11600880       1.90568234
24
Properties=species:S:1:pos:R:3 charge=1 charge_a=1 charge_b=0 selection_a=1-10 selection_b=11-24 scaling=0.95 benchmark_Eint=-23.087 benchmark_unit=kcal/mol group=NHk-N pbc="F F F"
C       -2.89740858       0.26163353      -0.71851922
C       -1.57716083       0.13813162      -0.42605398
N       -1.45142628       0.29113443       0.93836895
H       -0.54277239       0.24678224       1.46947804
C       -2.64632833       0.50124178       1.47114458
N       -3.54130648       0.48734123       0.48106372
H       -3.42430201       0.21026422      -1.65188849
H       -0.72728386      -0.04232896      -1.05670826
H       -2.86146585       0.65560764       2.51222705
H       -4.53288429       0.62182886       0.59998788
H        1.31143651      -2.24608894       0.70567459
H        2.38256865      -0.67388695      -3.13161770
H        1.86522600      -2.60219314      -1.66742261
H        1.82201900       1.97707105       0.18533061
H        1.26704495      -0.67347205       2.54018584
H        2.37512174       1.61466900      -2.18697722
H        1.46287001       0.94490343       2.34076256
C        2.13864647      -0.51628445      -2.09185134
C        1.84743581      -1.59823029      -1.26920052
C        1.53882397      -1.40019519       0.07040100
C        1.52559267      -0.11106374       0.59537697
C        1.82596911       0.97472572      -0.22222445
C        2.13358229       0.76828020      -1.56078049
N        1.06792549       0.10874361       1.92991591
24
Properties=species:S:1:pos:R:3 charge=1 charge_a=1 charge_b=0 selection_a=1-10 selection_b=11-24 scaling=1.0 benchmark_Eint=-23.352 benchmark_unit=kcal/mol group=NHk-N pbc="F F F"
C       -2.89740858       0.26163353      -0.71851922
C       -1.57716083       0.13813162      -0.42605398
N       -1.45142628       0.29113443       0.93836895
H       -0.54277239       0.24678224       1.46947804
C       -2.64632833       0.50124178       1.47114458
N       -3.54130648       0.48734123       0.48106372
H       -3.42430201       0.21026422      -1.65188849
H       -0.72728386      -0.04232896      -1.05670826
H       -2.86146585       0.65560764       2.51222705
H       -4.53288429       0.62182886       0.59998788
H        1.39621008      -2.25335413       0.72990816
H        2.46734222      -0.68115214      -3.10738412
H        1.94999957      -2.60945833      -1.64318904
H        1.90679258       1.96980586       0.20956418
H        1.35181852      -0.68073724       2.56441941
H        2.45989532       1.60740381      -2.16274365
H        1.54764359       0.93763824       2.36499614
C        2.22342004      -0.52354965      -2.06761777
C        1.93220938      -1.60549548      -1.24496694
C        1.62359754      -1.40746039       0.09463457
C        1.61036624      -0.11832893       0.61961054
C        1.91074268       0.96746053      -0.19799088
C        2.21835586       0.76101501      -1.53654692
N        1.15269907       0.10147842       1.95414949
24
Properties=species:S:1:pos:R:3 charge=1 charge_a=1 charge_b=0 selection_a=1-10 selection_b=11-24 scaling=1.05 benchmark_Eint=-23.061 benchmark_unit=kcal/mol group=NHk-N pbc="F F F"
C       -2.89740858       0.26163353      -0.71851922
C       -1.57716083       0.13813162      -0.42605398
N       -1.45142628       0.29113443       0.93836895
H       -0.54277239       0.24678224       1.46947804
C       -2.64632833       0.50124178       1.47114458
N       -3.54130648       0.48734123       0.48106372
H       -3.42430201       0.21026422      -1.65188849
H       -0.72728386      -0.04232896      -1.05670826
H       -2.86146585       0.65560764       2.51222705
H       -4.53288429       0.62182886       0.59998788
H        1.48098365      -2.26061932       0.75414173
H        2.55211580      -0.68841733      -3.08315055
H        2.03477314      -2.61672352      -1.61895547
H        1.99156615       1.96254067       0.23379775
H        1.43659210      -0.68800243       2.58865298
H        2.54466889       1.60013862      -2.13851008
H        1.63241716       0.93037305       2.38922971
C        2.30819361      -0.53081484      -2.04338419
C        2.01698296      -1.61276067      -1.22073337
C        1.70837112      -1.41472558       0.11886814
C        1.69513981      -0.12559413       0.64384411
C        1.99551626       0.96019534      -0.17375731
C        2.30312943       0.75374982      -1.51231335
N        1.23747264       0.09421323       1.97838306
24
Properties=species:S:1:pos:R:3 charge=1 charge_a=1 charge_b=0 selection_a=1-10 selection_b=11-24 scaling=1.1 benchmark_Eint=-22.401 benchmark_unit=kcal/mol group=NHk-N pbc="F F F"
C       -2.89740858       0.26163353      -0.71851922
C       -1.57716083       0.13813162      -0.42605398
N       -1.45142628       0.29113443       0.93836895
H       -0.54277239       0.24678224       1.46947804
C       -2.64632833       0.50124178       1.47114458
N       -3.54130648       0.48734123       0.48106372
H       -3.42430201       0.21026422      -1.65188849
H       -0.72728386      -0.04232896      -1.05670826
H       -2.86146585       0.65560764       2.51222705
H       -4.53288429       0.62182886       0.59998788
H        1.56575723      -2.26788451       0.77837530
H        2.63688937      -0.69568252      -3.05891698
H        2.11954671      -2.62398871      -1.59472189
H        2.07633972       1.95527548       0.25803132
H        1.52136567      -0.69526762       2.61288656
H        2.62944246       1.59287342      -2.11427650
H        1.71719073       0.92310786       2.41346328
C        2.39296718      -0.53808003      -2.01915062
C        2.10175653      -1.62002586      -1.19649980
C        1.79314469      -1.42199077       0.14310172
C        1.77991339      -0.13285932       0.66807768
C        2.08028983       0.95293015      -0.14952374
C        2.38790300       0.74648463      -1.48807978
N        1.32224621       0.08694803       2.00261663
24
Properties=species:S:1:pos:R:3 charge=1 charge_a=1 charge_b=0 selection_a=1-10 selection_b=11-24 scaling=1.25 benchmark_Eint=-19.38 benchmark_unit=kcal/mol group=NHk-N pbc="F F F"
C       -2.89740858       0.26163353      -0.71851922
C       -1.57716083       0.13813162      -0.42605398
N       -1.45142628       0.29113443       0.93836895
H       -0.54277239       0.24678224       1.46947804
C       -2.64632833       0.50124178       1.47114458
N       -3.54130648       0.48734123       0.48106372
H       -3.42430201       0.21026422      -1.65188849
H       -0.72728386      -0.04232896      -1.05670826
H       -2.86146585       0.65560764       2.51222705
H       -4.53288429       0.62182886       0.59998788
H        1.82007795      -2.28968009       0.85107602
H        2.89121009      -0.71747810      -2.98621626
H        2.37386743      -2.64578429      -1.52202118
H        2.33066044       1.93347990       0.33073204
H        1.77568639      -0.71706319       2.68558727
H        2.88376318       1.57107785      -2.04157579
H        1.97151145       0.90131228       2.48616400
C        2.64728790      -0.55987560      -1.94644990
C        2.35607725      -1.64182144      -1.12379908
C        2.04746541      -1.44378634       0.21580243
C        2.03423410      -0.15465489       0.74077840
C        2.33461055       0.93113457      -0.07682302
C        2.64222372       0.72468905      -1.41537906
N        1.57656693       0.06515246       2.07531735
24
Properties=species:S:1:pos:R:3 charge=1 charge_a=1 charge_b=0 selection_a=1-10 selection_b=11-24 scaling=1.5 benchmark_Eint=-14.136 benchmark_unit=kcal/mol group=NHk-N pbc="F F F"
C       -2.89740858       0.26163353      -0.71851922
C       -1.57716083       0.13813162      -0.42605398
N       -1.45142628       0.29113443       0.93836895
H       -0.54277239       0.24678224       1.46947804
C       -2.64632833       0.50124178       1.47114458
N       -3.54130648       0.48734123       0.48106372
H       -3.42430201       0.21026422      -1.65188849
H       -0.72728386      -0.04232896      -1.05670826
H       -2.86146585       0.65560764       2.51222705
H       -4.53288429       0.62182886       0.59998788
H        2.24394581      -2.32600605       0.97224388
H        3.31507795      -0.75380405      -2.86504840
H        2.79773530      -2.68211024      -1.40085332
H        2.75452830       1.89715395       0.45189990
H        2.19955425      -0.75338915       2.80675514
H        3.30763105       1.53475189      -1.92040792
H        2.39537931       0.86498633       2.60733186
C        3.07115577      -0.59620156      -1.82528204
C        2.77994511      -1.67814739      -1.00263122
C        2.47133327      -1.48011230       0.33697030
C        2.45810197      -0.19098085       0.86194626
C        2.75847841       0.89480862       0.04434484
C        3.06609159       0.68836310      -1.29421120
N        2.00043479       0.02882650       2.19648521
24
Properties=species:S:1:pos:R:3 charge=1 charge_a=1 charge_b=0 selection_a=1-10 selection_b=11-24 scaling=2.0 benchmark_Eint=-7.738 benchmark_unit=kcal/mol group=NHk-N pbc="F F F"
C       -2.89740858       0.26163353      -0.71851922
C       -1.57716083       0.13813162      -0.42605398
N       -1.45142628       0.29113443       0.93836895
H       -0.54277239       0.24678224       1.46947804
C       -2.64632833       0.50124178       1.47114458
N       -3.54130648       0.48734123       0.48106372
H       -3.42430201       0.21026422      -1.65188849
H       -0.72728386      -0.04232896      -1.05670826
H       -2.86146585       0.65560764       2.51222705
H       -4.53288429       0.62182886       0.59998788
H        3.09168154      -2.39865796       1.21457961
H        4.16281368      -0.82645596      -2.62271267
H        3.64547102      -2.75476216      -1.15851759
H        3.60226403       1.82450203       0.69423563
H        3.04728998      -0.82604106       3.04909086
H        4.15536677       1.46209998      -1.67807220
H        3.24311504       0.79233441       2.84966759
C        3.91889149      -0.66885347      -1.58294632
C        3.62768084      -1.75079931      -0.76029550
C        3.31906900      -1.55276421       0.57930602
C        3.30583770      -0.26363276       1.10428199
C        3.60621414       0.82215671       0.28668057
C        3.91382731       0.61571118      -1.05187547
N        2.84817052      -0.04382541       2.43882093
20
Properties=species:S:1:pos:R:3 charge=1 charge_a=1 charge_b=0 selection_a=1-14 selection_b=15-20 scaling=0.8 benchmark_Eint=-15.307 benchmark_unit=kcal/mol group=NHk-N pbc="F F F"
C       -2.10377576       1.13794053      -0.01575113
N       -1.46757952      -0.21055998      -0.00178796
H       -0.43589941      -0.06203943      -0.00031825
C       -1.80236937      -0.96714533       1.23873087
C       -1.79574140      -0.98951119      -1.23017210
H       -1.78947702       1.68330246       0.86831671
H       -3.18378954       1.02189334      -0.01783622
H       -1.78435129       1.66731268      -0.90766835
H       -1.49309524      -0.38348177       2.09981765
H       -1.27197965      -1.91388263       1.22612331
H       -2.87414782      -1.14068719       1.27143575
H       -1.48181847      -0.42153348      -2.10002146
H       -2.86734795      -1.16361518      -1.26551646
H       -1.26553357      -1.93587028      -1.19755677
H        3.85545145       0.91370911      -0.95559749
H        4.04797454      -0.44039868       0.17437254
H        3.81212163       1.20523511       0.79387311
C        3.54010319       0.50732220       0.00387248
C        2.10550937       0.30227413       0.00258543
N        0.97031739       0.14011929       0.00170014
20
Properties=species:S:1:pos:R:3 charge=1 charge_a=1 charge_b=0 selection_a=1-14 selection_b=15-20 scaling=0.85 benchmark_Eint=-18.963 benchmark_unit=kcal/mol group=NHk-N pbc="F F F"
C       -2.10377576       1.13794053      -0.01575113
N       -1.46757952      -0.21055998      -0.00178796
H       -0.43589941      -0.06203943      -0.00031825
C       -1.80236937      -0.96714533       1.23873087
C       -1.79574140      -0.98951119      -1.23017210
H       -1.78947702       1.68330246       0.86831671
H       -3.18378954       1.02189334      -0.01783622
H       -1.78435129       1.66731268      -0.90766835
H       -1.49309524      -0.38348177       2.09981765
H       -1.27197965      -1.91388263       1.22612331
H       -2.87414782      -1.14068719       1.27143575
H       -1.48181847      -0.42153348      -2.10002146
H       -2.86734795      -1.16361518      -1.26551646
H       -1.26553357      -1.93587028      -1.19755677
H        3.94334000       0.92634403      -0.95547134
H        4.13586309      -0.42776376       0.17449869
H        3.90001018       1.21787003       0.79399926
C        3.62799174       0.51995712       0.00399863
C        2.19339792       0.31490905       0.00271157
N        1.05820594       0.15275421       0.00182629
20
Properties=species:S:1:pos:R:3 charge=1 charge_a=1 charge_b=0 selection_a=1-14 selection_b=15-20 scaling=0.9 benchmark_Eint=-21.134 benchmark_unit=kcal/mol group=NHk-N pbc="F F F"
C       -2.10377576       1.13794053      -0.01575113
N       -1.46757952      -0.21055998      -0.00178796
H       -0.43589941      -0.06203943      -0.00031825
C       -1.80236937      -0.96714533       1.23873087
C       -1.79574140      -0.98951119      -1.23017210
H       -1.78947702       1.68330246       0.86831671
H       -3.18378954       1.02189334      -0.01783622
H       -1.78435129       1.66731268      -0.90766835
H       -1.49309524      -0.38348177       2.09981765
H       -1.27197965      -1.91388263       1.22612331
H       -2.87414782      -1.14068719       1.27143575
H       -1.48181847      -0.42153348      -2.10002146
H       -2.86734795      -1.16361518      -1.26551646
H       -1.26553357      -1.93587028      -1.19755677
H        4.03122855       0.93897895      -0.95534519
H        4.22375165      -0.41512884       0.17462484
H        3.98789873       1.23050495       0.79412541
C        3.71588029       0.53259204       0.00412478
C        2.28128647       0.32754397       0.00283772
N        1.14609449       0.16538913       0.00195244
20
Properties=species:S:1:pos:R:3 charge=1 charge_a=1 charge_b=0 selection_a=1-14 selection_b=15-20 scaling=0.95 benchmark_Eint=-22.253 benchmark_unit=kcal/mol group=NHk-N pbc="F F F"
C       -2.10377576       1.13794053      -0.01575113
N       -1.46757952      -0.21055998      -0.00178796
H       -0.43589941      -0.06203943      -0.00031825
C       -1.80236937      -0.96714533       1.23873087
C       -1.79574140      -0.98951119      -1.23017210
H       -1.78947702       1.68330246       0.86831671
H       -3.18378954       1.02189334      -0.01783622
H       -1.78435129       1.66731268      -0.90766835
H       -1.49309524      -0.38348177       2.09981765
H       -1.27197965      -1.91388263       1.22612331
H       -2.87414782      -1.14068719       1.27143575
H       -1.48181847      -0.42153348      -2.10002146
H       -2.86734795      -1.16361518      -1.26551646
H       -1.26553357      -1.93587028      -1.19755677
H        4.11911710       0.95161387      -0.95521904
H        4.31164019      -0.40249392       0.17475098
H        4.07578728       1.24313987       0.79425156
C        3.80376884       0.54522696       0.00425093
C        2.36917502       0.34017889       0.00296387
N        1.23398304       0.17802405       0.00207859
20
Properties=species:S:1:pos:R:3 charge=1 charge_a=1 charge_b=0 selection_a=1-14 selection_b=15-20 scaling=1.0 benchmark_Eint=-22.64 benchmark_unit=kcal/mol group=NHk-N pbc="F F F"
C       -2.10377576       1.13794053      -0.01575113
N       -1.46757952      -0.21055998      -0.00178796
H       -0.43589941      -0.06203943      -0.00031825
C       -1.80236937      -0.96714533       1.23873087
C       -1.79574140      -0.98951119      -1.23017210
H       -1.78947702       1.68330246       0.86831671
H       -3.18378954       1.02189334      -0.01783622
H       -1.78435129       1.66731268      -0.90766835
H       -1.49309524      -0.38348177       2.09981765
H       -1.27197965      -1.91388263       1.22612331
H       -2.87414782      -1.14068719       1.27143575
H       -1.48181847      -0.42153348      -2.10002146
H       -2.86734795      -1.16361518      -1.26551646
H       -1.26553357      -1.93587028      -1.19755677
H        4.20700565       0.96424879      -0.95509289
H        4.39952874      -0.38985900       0.17487713
H        4.16367584       1.25577479       0.79437771
C        3.89165739       0.55786188       0.00437708
C        2.45706357       0.35281381       0.00309002
N        1.32187159       0.19065898       0.00220474
20
Properties=species:S:1:pos:R:3 charge=1 charge_a=1 charge_b=0 selection_a=1-14 selection_b=15-20 scaling=1.05 benchmark_Eint=-22.52 benchmark_unit=kcal/mol group=NHk-N pbc="F F F"
C       -2.10377576       1.13794053      -0.01575113
N       -1.46757952      -0.21055998      -0.00178796
H       -0.43589941      -0.06203943      -0.00031825
C       -1.80236937      -0.96714533       1.23873087
C       -1.79574140      -0.98951119      -1.23017210
H       -1.78947702       1.68330246       0.86831671
H       -3.18378954       1.02189334      -0.01783622
H       -1.78435129       1.66731268      -0.90766835
H       -1.49309524      -0.38348177       2.09981765
H       -1.27197965      -1.91388263       1.22612331
H       -2.87414782      -1.14068719       1.27143575
H       -1.48181847      -0.42153348      -2.10002146
H       -2.86734795      -1.16361518      -1.26551646
H       -1.26553357      -1.93587028      -1.19755677
H        4.29489420       0.97688371      -0.95496674
H        4.48741730      -0.37722408       0.17500328
H        4.25156439       1.26840971       0.79450386
C        3.97954594       0.57049680       0.00450323
C        2.54495212       0.36544873       0.00321617
N        1.40976014       0.20329390       0.00233089
20
Properties=species:S:1:pos:R:3 charge=1 charge_a=1 charge_b=0 selection_a=1-14 selection_b=15-20 scaling=1.1 benchmark_Eint=-22.063 benchmark_unit=kcal/mol group=NHk-N pbc="F F F"
C       -2.10377576       1.13794053      -0.01575113
N       -1.46757952      -0.21055998      -0.00178796
H       -0.43589941      -0.06203943      -0.00031825
C       -1.80236937      -0.96714533       1.23873087
C       -1.79574140      -0.98951119      -1.23017210
H       -1.78947702       1.68330246       0.86831671
H       -3.18378954       1.02189334      -0.01783622
H       -1.78435129       1.66731268      -0.90766835
H       -1.49309524      -0.38348177       2.09981765
H       -1.27197965      -1.91388263       1.22612331
H       -2.87414782      -1.14068719       1.27143575
H       -1.48181847      -0.42153348      -2.10002146
H       -2.86734795      -1.16361518      -1.26551646
H       -1.26553357      -1.93587028      -1.19755677
H        4.38278275       0.98951863      -0.95484059
H        4.57530584      -0.36458916       0.17512943
H        4.33945293       1.28104463       0.79463001
C        4.06743449       0.58313172       0.00462938
C        2.63284067       0.37808365       0.00334232
N        1.49764869       0.21592882       0.00245704
20
Properties=species:S:1:pos:R:3 charge=1 charge_a=1 charge_b=0 selection_a=1-14 selection_b=15-20 scaling=1.25 benchmark_Eint=-19.706 benchmark_unit=kcal/mol group=NHk-N pbc="F F F"
C       -2.10377576       1.13794053      -0.01575113
N       -1.46757952      -0.21055998      -0.00178796
H       -0.43589941      -0.06203943      -0.00031825
C       -1.80236937      -0.96714533       1.23873087
C       -1.79574140      -0.98951119      -1.23017210
H       -1.78947702       1.68330246       0.86831671
H       -3.18378954       1.02189334      -0.01783622
H       -1.78435129       1.66731268      -0.90766835
H       -1.49309524      -0.38348177       2.09981765
H       -1.27197965      -1.91388263       1.22612331
H       -2.87414782      -1.14068719       1.27143575
H       -1.48181847      -0.42153348      -2.10002146
H       -2.86734795      -1.16361518      -1.26551646
H       -1.26553357      -1.93587028      -1.19755677
H        4.64644841       1.02742339      -0.95446215
H        4.83897150      -0.32668440       0.17550788
H        4.60311859       1.31894939       0.79500845
C        4.33110014       0.62103648       0.00500782
C        2.89650632       0.41598841       0.00372077
N        1.76131434       0.25383358       0.00283548
20
Properties=species:S:1:pos:R:3 charge=1 charge_a=1 charge_b=0 selection_a=1-14 selection_b=15-20 scaling=1.5 benchmark_Eint=-15.391 benchmark_unit=kcal/mol group=NHk-N pbc="F F F"
C       -2.10377576       1.13794053      -0.01575113
N       -1.46757952      -0.21055998      -0.00178796
H       -0.43589941      -0.06203943      -0.00031825
C       -1.80236937      -0.96714533       1.23873087
C       -1.79574140      -0.98951119      -1.23017210
H       -1.78947702       1.68330246       0.86831671
H       -3.18378954       1.02189334      -0.01783622
H       -1.78435129       1.66731268      -0.90766835
H       -1.49309524      -0.38348177       2.09981765
H       -1.27197965      -1.91388263       1.22612331
H       -2.87414782      -1.14068719       1.27143575
H       -1.48181847      -0.42153348      -2.10002146
H       -2.86734795      -1.16361518      -1.26551646
H       -1.26553357      -1.93587028      -1.19755677
H        5.08589116       1.09059799      -0.95383140
H        5.27841425      -0.26350980       0.17613863
H        5.04256134       1.38212399       0.79563920
C        4.77054289       0.68421108       0.00563857
C        3.33594907       0.47916301       0.00435151
N        2.20075709       0.31700818       0.00346623
20
Properties=species:S:1:pos:R:3 charge=1 charge_a=1 charge_b=0 selection_a=1-14 selection_b=15-20 scaling=2.0 benchmark_Eint=-9.753 benchmark_unit=kcal/mol group=NHk-N pbc="F F F"
C       -2.10377576       1.13794053      -0.01575113
N       -1.46757952      -0.21055998      -0.00178796
H       -0.43589941      -0.06203943      -0.00031825
C       -1.80236937      -0.96714533       1.23873087
C       -1.79574140      -0.98951119      -1.23017210
H       -1.78947702       1.68330246       0.86831671
H       -3.18378954       1.02189334      -0.01783622
H       -1.78435129       1.66731268      -0.90766835
H       -1.49309524      -0.38348177       2.09981765
H       -1.27197965      -1.91388263       1.22612331
H       -2.87414782      -1.14068719       1.27143575
H       -1.48181847      -0.42153348      -2.10002146
H       -2.86734795      -1.16361518      -1.26551646
H       -1.26553357      -1.93587028      -1.19755677
H        5.96477666       1.21694720      -0.95256991
H        6.15729975      -0.13716059       0.17740012
H        5.92144684       1.50847320       0.79690069
C        5.64942840       0.81056029       0.00690006
C        4.21483458       0.60551222       0.00561300
N        3.07964260       0.44335738       0.00472772
18
Properties=species:S:1:pos:R:3 charge=1 charge_a=1 charge_b=0 selection_a=1-14 selection_b=15-18 scaling=0.8 benchmark_Eint=-14.012 benchmark_unit=kcal/mol group=NHk-N pbc="F F F"
C       -1.23272548      -0.82411033      -0.71076211
N        0.00000288      -0.38283396      -0.00000291
H       -0.00002035       0.68056587       0.00000080
C        0.00083878      -0.82410242       1.42295767
C        1.23192014      -0.82406959      -0.71220383
H       -2.10060644      -0.43497857      -0.18746706
H       -1.26848747      -1.90983322      -0.72779641
H       -1.21161799      -0.44043703      -1.72605143
H       -0.88899140      -0.44044918       1.91231730
H        0.88795125      -0.43494806       1.91292125
H        0.00398966      -1.90982478       1.46244332
H        1.21266663      -0.43493392      -1.72545513
H        1.26458202      -1.90979069      -0.73466837
H        2.10061887      -0.44037559      -0.18627624
N       -0.00002867       2.09004000       0.00000811
H       -0.46801181       2.47949839      -0.81192813
H       -0.46919747       2.47949349       0.81126190
H        0.93711958       2.47949945       0.00069347
18
Properties=species:S:1:pos:R:3 charge=1 charge_a=1 charge_b=0 selection_a=1-14 selection_b=15-18 scaling=0.85 benchmark_Eint=-17.478 benchmark_unit=kcal/mol group=NHk-N pbc="F F F"
C       -1.23272548      -0.82411033      -0.71076211
N        0.00000288      -0.38283396      -0.00000291
H       -0.00002035       0.68056587       0.00000080
C        0.00083878      -0.82410242       1.42295767
C        1.23192014      -0.82406959      -0.71220383
H       -2.10060644      -0.43497857      -0.18746706
H       -1.26848747      -1.90983322      -0.72779641
H       -1.21161799      -0.44043703      -1.72605143
H       -0.88899140      -0.44044918       1.91231730
H        0.88795125      -0.43494806       1.91292125
H        0.00398966      -1.90982478       1.46244332
H        1.21266663      -0.43493392      -1.72545513
H        1.26458202      -1.90979069      -0.73466837
H        2.10061887      -0.44037559      -0.18627624
N       -0.00002919       2.17813213       0.00000857
H       -0.46801233       2.56759052      -0.81192768
H       -0.46919799       2.56758562       0.81126236
H        0.93711906       2.56759158       0.00069393
18
Properties=species:S:1:pos:R:3 charge=1 charge_a=1 charge_b=0 selection_a=1-14 selection_b=15-18 scaling=0.9 benchmark_Eint=-19.527 benchmark_unit=kcal/mol group=NHk-N pbc="F F F"
C       -1.23272548      -0.82411033      -0.71076211
N        0.00000288      -0.38283396      -0.00000291
H       -0.00002035       0.68056587       0.00000080
C        0.00083878      -0.82410242       1.42295767
C        1.23192014      -0.82406959      -0.71220383
H       -2.10060644      -0.43497857      -0.18746706
H       -1.26848747      -1.90983322      -0.72779641
H       -1.21161799      -0.44043703      -1.72605143
H       -0.88899140      -0.44044918       1.91231730
H        0.88795125      -0.43494806       1.91292125
H        0.00398966      -1.90982478       1.46244332
H        1.21266663      -0.43493392      -1.72545513
H        1.26458202      -1.90979069      -0.73466837
H        2.10061887      -0.44037559      -0.18627624
N       -0.00002971       2.26622426       0.00000903
H       -0.46801285       2.65568265      -0.81192722
H       -0.46919851       2.65567776       0.81126282
H        0.93711854       2.65568372       0.00069438
18
Properties=species:S:1:pos:R:3 charge=1 charge_a=1 charge_b=0 selection_a=1-14 selection_b=15-18 scaling=0.95 benchmark_Eint=-20.569 benchmark_unit=kcal/mol group=NHk-N pbc="F F F"
C       -1.23272548      -0.82411033      -0.71076211
N        0.00000288      -0.38283396      -0.00000291
H       -0.00002035       0.68056587       0.00000080
C        0.00083878      -0.82410242       1.42295767
C        1.23192014      -0.82406959      -0.71220383
H       -2.10060644      -0.43497857      -0.18746706
H       -1.26848747      -1.90983322      -0.72779641
H       -1.21161799      -0.44043703      -1.72605143
H       -0.88899140      -0.44044918       1.91231730
H        0.88795125      -0.43494806       1.91292125
H        0.00398966      -1.90982478       1.46244332
H        1.21266663      -0.43493392      -1.72545513
H        1.26458202      -1.90979069      -0.73466837
H        2.10061887      -0.44037559      -0.18627624
N       -0.00003023       2.35431640       0.00000948
H       -0.46801337       2.74377478      -0.81192676
H       -0.46919903       2.74376989       0.81126327
H        0.93711802       2.74377585       0.00069484
18
Properties=species:S:1:pos:R:3 charge=1 charge_a=1 charge_b=0 selection_a=1-14 selection_b=15-18 scaling=1.0 benchmark_Eint=-20.901 benchmark_unit=kcal/mol group=NHk-N pbc="F F F"
C       -1.23272548      -0.82411033      -0.71076211
N        0.00000288      -0.38283396      -0.00000291
H       -0.00002035       0.68056587       0.00000080
C        0.00083878      -0.82410242       1.42295767
C        1.23192014      -0.82406959      -0.71220383
H       -2.10060644      -0.43497857      -0.18746706
H       -1.26848747      -1.90983322      -0.72779641
H       -1.21161799      -0.44043703      -1.72605143
H       -0.88899140      -0.44044918       1.91231730
H        0.88795125      -0.43494806       1.91292125
H        0.00398966      -1.90982478       1.46244332
H        1.21266663      -0.43493392      -1.72545513
H        1.26458202      -1.90979069      -0.73466837
H        2.10061887      -0.44037559      -0.18627624
N       -0.00003075       2.44240853       0.00000994
H       -0.46801389       2.83186692      -0.81192631
H       -0.46919955       2.83186202       0.81126373
H        0.93711750       2.83186798       0.00069530
18
Properties=species:S:1:pos:R:3 charge=1 charge_a=1 charge_b=0 selection_a=1-14 selection_b=15-18 scaling=1.05 benchmark_Eint=-20.741 benchmark_unit=kcal/mol group=NHk-N pbc="F F F"
C       -1.23272548      -0.82411033      -0.71076211
N        0.00000288      -0.38283396      -0.00000291
H       -0.00002035       0.68056587       0.00000080
C        0.00083878      -0.82410242       1.42295767
C        1.23192014      -0.82406959      -0.71220383
H       -2.10060644      -0.43497857      -0.18746706
H       -1.26848747      -1.90983322      -0.72779641
H       -1.21161799      -0.44043703      -1.72605143
H       -0.88899140      -0.44044918       1.91231730
H        0.88795125      -0.43494806       1.91292125
H        0.00398966      -1.90982478       1.46244332
H        1.21266663      -0.43493392      -1.72545513
H        1.26458202      -1.90979069      -0.73466837
H        2.10061887      -0.44037559      -0.18627624
N       -0.00003127       2.53050066       0.00001040
H       -0.46801441       2.91995905      -0.81192585
H       -0.46920007       2.91995415       0.81126419
H        0.93711698       2.91996011       0.00069576
18
Properties=species:S:1:pos:R:3 charge=1 charge_a=1 charge_b=0 selection_a=1-14 selection_b=15-18 scaling=1.1 benchmark_Eint=-20.248 benchmark_unit=kcal/mol group=NHk-N pbc="F F F"
C       -1.23272548      -0.82411033      -0.71076211
N        0.00000288      -0.38283396      -0.00000291
H       -0.00002035       0.68056587       0.00000080
C        0.00083878      -0.82410242       1.42295767
C        1.23192014      -0.82406959      -0.71220383
H       -2.10060644      -0.43497857      -0.18746706
H       -1.26848747      -1.90983322      -0.72779641
H       -1.21161799      -0.44043703      -1.72605143
H       -0.88899140      -0.44044918       1.91231730
H        0.88795125      -0.43494806       1.91292125
H        0.00398966      -1.90982478       1.46244332
H        1.21266663      -0.43493392      -1.72545513
H        1.26458202      -1.90979069      -0.73466837
H        2.10061887      -0.44037559      -0.18627624
N       -0.00003179       2.61859280       0.00001086
H       -0.46801493       3.00805118      -0.81192539
H       -0.46920059       3.00804629       0.81126464
H        0.93711646       3.00805225       0.00069621
18
Properties=species:S:1:pos:R:3 charge=1 charge_a=1 charge_b=0 selection_a=1-14 selection_b=15-18 scaling=1.25 benchmark_Eint=-17.781 benchmark_unit=kcal/mol group=NHk-N pbc="F F F"
C       -1.23272548      -0.82411033      -0.71076211
N        0.00000288      -0.38283396      -0.00000291
H       -0.00002035       0.68056587       0.00000080
C        0.00083878      -0.82410242       1.42295767
C        1.23192014      -0.82406959      -0.71220383
H       -2.10060644      -0.43497857      -0.18746706
H       -1.26848747      -1.90983322      -0.72779641
H       -1.21161799      -0.44043703      -1.72605143
H       -0.88899140      -0.44044918       1.91231730
H        0.88795125      -0.43494806       1.91292125
H        0.00398966      -1.90982478       1.46244332
H        1.21266663      -0.43493392      -1.72545513
H        1.26458202      -1.90979069      -0.73466837
H        2.10061887      -0.44037559      -0.18627624
N       -0.00003335       2.88286920       0.00001223
H       -0.46801649       3.27232758      -0.81192402
H       -0.46920215       3.27232269       0.81126601
H        0.93711490       3.27232865       0.00069758
18
Properties=species:S:1:pos:R:3 charge=1 charge_a=1 charge_b=0 selection_a=1-14 selection_b=15-18 scaling=1.5 benchmark_Eint=-13.251 benchmark_unit=kcal/mol group=NHk-N pbc="F F F"
C       -1.23272548      -0.82411033      -0.71076211
N        0.00000288      -0.38283396      -0.00000291
H       -0.00002035       0.68056587       0.00000080
C        0.00083878      -0.82410242       1.42295767
C        1.23192014      -0.82406959      -0.71220383
H       -2.10060644      -0.43497857      -0.18746706
H       -1.26848747      -1.90983322      -0.72779641
H       -1.21161799      -0.44043703      -1.72605143
H       -0.88899140      -0.44044918       1.91231730
H        0.88795125      -0.43494806       1.91292125
H        0.00398966      -1.90982478       1.46244332
H        1.21266663      -0.43493392      -1.72545513
H        1.26458202      -1.90979069      -0.73466837
H        2.10061887      -0.44037559      -0.18627624
N       -0.00003595       3.32332986       0.00001451
H       -0.46801909       3.71278825      -0.81192174
H       -0.46920475       3.71278335       0.81126830
H        0.93711230       3.71278931       0.00069987
18
Properties=species:S:1:pos:R:3 charge=1 charge_a=1 charge_b=0 selection_a=1-14 selection_b=15-18 scaling=2.0 benchmark_Eint=-7.438 benchmark_unit=kcal/mol group=NHk-N pbc="F F F"
C       -1.23272548      -0.82411033      -0.71076211
N        0.00000288      -0.38283396      -0.00000291
H       -0.00002035       0.68056587       0.00000080
C        0.00083878      -0.82410242       1.42295767
C        1.23192014      -0.82406959      -0.71220383
H       -2.10060644      -0.43497857      -0.18746706
H       -1.26848747      -1.90983322      -0.72779641
H       -1.21161799      -0.44043703      -1.72605143
H       -0.88899140      -0.44044918       1.91231730
H        0.88795125      -0.43494806       1.91292125
H        0.00398966      -1.90982478       1.46244332
H        1.21266663      -0.43493392      -1.72545513
H        1.26458202      -1.90979069      -0.73466837
H        2.10061887      -0.44037559      -0.18627624
N       -0.00004115       4.20425119       0.00001908
H       -0.46802429       4.59370958      -0.81191717
H       -0.46920995       4.59370468       0.81127287
H        0.93710710       4.59371064       0.00070444
24
Properties=species:S:1:pos:R:3 charge=1 charge_a=1 charge_b=0 selection_a=1-14 selection_b=15-24 scaling=0.8 benchmark_Eint=-17.73 benchmark_unit=kcal/mol group=NHk-N pbc="F F F"
C        1.06652211      -0.79706479      -1.47184673
N       -0.05083616       0.12715400      -1.14237176
H       -0.15888115       0.13784424      -0.05457740
C        0.24824077       1.52062498      -1.56670066
C       -1.34100605      -0.35093270      -1.70641045
H        1.97498516      -0.43695294      -0.99900378
H        1.20446430      -0.83373827      -2.54950092
H        0.82727929      -1.78852357      -1.09990833
H        1.17390621       1.84205506      -1.09932630
H       -0.56488194       2.16829287      -1.25294076
H        0.35068814       1.55901145      -2.64815170
H       -1.53900871      -1.35267584      -1.33773262
H       -1.28242814      -0.36436317      -2.79172227
H       -2.13505768       0.31924095      -1.39107773
H        1.82612531       0.01530255       1.50058176
H        0.98270485       0.58849616       2.94050340
H        1.16384779       1.65515839       1.53898104
H       -1.01187887       0.74223784       1.54398067
H       -1.54354400      -1.54407872       1.30424197
H        0.18270700      -1.92665329       1.35815416
H       -0.62643861      -1.31286547       2.80101823
C        0.99502486       0.62637130       1.84952386
N       -0.25881883       0.12579071       1.25964848
C       -0.58287965      -1.23815300       1.71274220
24
Properties=species:S:1:pos:R:3 charge=1 charge_a=1 charge_b=0 selection_a=1-14 selection_b=15-24 scaling=0.85 benchmark_Eint=-21.681 benchmark_unit=kcal/mol group=NHk-N pbc="F F F"
C        1.06652211      -0.79706479      -1.47184673
N       -0.05083616       0.12715400      -1.14237176
H       -0.15888115       0.13784424      -0.05457740
C        0.24824077       1.52062498      -1.56670066
C       -1.34100605      -0.35093270      -1.70641045
H        1.97498516      -0.43695294      -0.99900378
H        1.20446430      -0.83373827      -2.54950092
H        0.82727929      -1.78852357      -1.09990833
H        1.17390621       1.84205506      -1.09932630
H       -0.56488194       2.16829287      -1.25294076
H        0.35068814       1.55901145      -2.64815170
H       -1.53900871      -1.35267584      -1.33773262
H       -1.28242814      -0.36436317      -2.79172227
H       -2.13505768       0.31924095      -1.39107773
H        1.81987920       0.01454920       1.58272088
H        0.97645874       0.58774282       3.02264252
H        1.15760168       1.65440505       1.62112015
H       -1.01812497       0.74148450       1.62611978
H       -1.54979011      -1.54483207       1.38638109
H        0.17646089      -1.92740664       1.44029327
H       -0.63268471      -1.31361881       2.88315735
C        0.98877876       0.62561795       1.93166298
N       -0.26506493       0.12503736       1.34178759
C       -0.58912576      -1.23890635       1.79488132
24
Properties=species:S:1:pos:R:3 charge=1 charge_a=1 charge_b=0 selection_a=1-14 selection_b=15-24 scaling=0.9 benchmark_Eint=-24.017 benchmark_unit=kcal/mol group=NHk-N pbc="F F F"
C        1.06652211      -0.79706479      -1.47184673
N       -0.05083616       0.12715400      -1.14237176
H       -0.15888115       0.13784424      -0.05457740
C        0.24824077       1.52062498      -1.56670066
C       -1.34100605      -0.35093270      -1.70641045
H        1.97498516      -0.43695294      -0.99900378
H        1.20446430      -0.83373827      -2.54950092
H        0.82727929      -1.78852357      -1.09990833
H        1.17390621       1.84205506      -1.09932630
H       -0.56488194       2.16829287      -1.25294076
H        0.35068814       1.55901145      -2.64815170
H       -1.53900871      -1.35267584      -1.33773262
H       -1.28242814      -0.36436317      -2.79172227
H       -2.13505768       0.31924095      -1.39107773
H        1.81363310       0.01379586       1.66486000
H        0.97021264       0.58698947       3.10478163
H        1.15135558       1.65365170       1.70325927
H       -1.02437107       0.74073115       1.70825890
H       -1.55603621      -1.54558541       1.46852021
H        0.17021479      -1.92815998       1.52243239
H       -0.63893082      -1.31437216       2.96529647
C        0.98253265       0.62486461       2.01380210
N       -0.27131104       0.12428401       1.42392671
C       -0.59537186      -1.23965969       1.87702043
24
Properties=species:S:1:pos:R:3 charge=1 charge_a=1 charge_b=0 selection_a=1-14 selection_b=15-24 scaling=0.95 benchmark_Eint=-25.205 benchmark_unit=kcal/mol group=NHk-N pbc="F F F"
C        1.06652211      -0.79706479      -1.47184673
N       -0.05083616       0.12715400      -1.14237176
H       -0.15888115       0.13784424      -0.05457740
C        0.24824077       1.52062498      -1.56670066
C       -1.34100605      -0.35093270      -1.70641045
H        1.97498516      -0.43695294      -0.99900378
H        1.20446430      -0.83373827      -2.54950092
H        0.82727929      -1.78852357      -1.09990833
H        1.17390621       1.84205506      -1.09932630
H       -0.56488194       2.16829287      -1.25294076
H        0.35068814       1.55901145      -2.64815170
H       -1.53900871      -1.35267584      -1.33773262
H       -1.28242814      -0.36436317      -2.79172227
H       -2.13505768       0.31924095      -1.39107773
H        1.80738699       0.01304251       1.74699912
H        0.96396653       0.58623612       3.18692075
H        1.14510948       1.65289836       1.78539839
H       -1.03061718       0.73997780       1.79039802
H       -1.56228232      -1.54633876       1.55065932
H        0.16396868      -1.92891333       1.60457151
H       -0.64517692      -1.31512550       3.04743559
C        0.97628655       0.62411126       2.09594122
N       -0.27755714       0.12353067       1.50606583
C       -0.60161797      -1.24041304       1.95915955
24
Properties=species:S:1:pos:R:3 charge=1 charge_a=1 charge_b=0 selection_a=1-14 selection_b=15-24 scaling=1.0 benchmark_Eint=-25.579 benchmark_unit=kcal/mol group=NHk-N pbc="F F F"
C        1.06652211      -0.79706479      -1.47184673
N       -0.05083616       0.12715400      -1.14237176
H       -0.15888115       0.13784424      -0.05457740
C        0.24824077       1.52062498      -1.56670066
C       -1.34100605      -0.35093270      -1.70641045
H        1.97498516      -0.43695294      -0.99900378
H        1.20446430      -0.83373827      -2.54950092
H        0.82727929      -1.78852357      -1.09990833
H        1.17390621       1.84205506      -1.09932630
H       -0.56488194       2.16829287      -1.25294076
H        0.35068814       1.55901145      -2.64815170
H       -1.53900871      -1.35267584      -1.33773262
H       -1.28242814      -0.36436317      -2.79172227
H       -2.13505768       0.31924095      -1.39107773
H        1.80114089       0.01228917       1.82913823
H        0.95772043       0.58548278       3.26905987
H        1.13886337       1.65214501       1.86753751
H       -1.03686328       0.73922446       1.87253714
H       -1.56852842      -1.54709210       1.63279844
H        0.15772258      -1.92966667       1.68671063
H       -0.65142303      -1.31587885       3.12957471
C        0.97004044       0.62335792       2.17808033
N       -0.28380325       0.12277732       1.58820495
C       -0.60786407      -1.24116639       2.04129867
24
Properties=species:S:1:pos:R:3 charge=1 charge_a=1 charge_b=0 selection_a=1-14 selection_b=15-24 scaling=1.05 benchmark_Eint=-25.381 benchmark_unit=kcal/mol group=NHk-N pbc="F F F"
C        1.06652211      -0.79706479      -1.47184673
N       -0.05083616       0.12715400      -1.14237176
H       -0.15888115       0.13784424      -0.05457740
C        0.24824077       1.52062498      -1.56670066
C       -1.34100605      -0.35093270      -1.70641045
H        1.97498516      -0.43695294      -0.99900378
H        1.20446430      -0.83373827      -2.54950092
H        0.82727929      -1.78852357      -1.09990833
H        1.17390621       1.84205506      -1.09932630
H       -0.56488194       2.16829287      -1.25294076
H        0.35068814       1.55901145      -2.64815170
H       -1.53900871      -1.35267584      -1.33773262
H       -1.28242814      -0.36436317      -2.79172227
H       -2.13505768       0.31924095      -1.39107773
H        1.79489478       0.01153582       1.91127735
H        0.95147432       0.58472943       3.35119898
H        1.13261727       1.65139166       1.94967662
H       -1.04310939       0.73847111       1.95467625
H       -1.57477453      -1.54784545       1.71493756
H        0.15147647      -1.93042002       1.76884974
H       -0.65766913      -1.31663219       3.21171382
C        0.96379434       0.62260457       2.26021945
N       -0.29004935       0.12202398       1.67034406
C       -0.61411018      -1.24191973       2.12343778
24
Properties=species:S:1:pos:R:3 charge=1 charge_a=1 charge_b=0 selection_a=1-14 selection_b=15-24 scaling=1.1 benchmark_Eint=-24.791 benchmark_unit=kcal/mol group=NHk-N pbc="F F F"
C        1.06652211      -0.79706479      -1.47184673
N       -0.05083616       0.12715400      -1.14237176
H       -0.15888115       0.13784424      -0.05457740
C        0.24824077       1.52062498      -1.56670066
C       -1.34100605      -0.35093270      -1.70641045
H        1.97498516      -0.43695294      -0.99900378
H        1.20446430      -0.83373827      -2.54950092
H        0.82727929      -1.78852357      -1.09990833
H        1.17390621       1.84205506      -1.09932630
H       -0.56488194       2.16829287      -1.25294076
H        0.35068814       1.55901145      -2.64815170
H       -1.53900871      -1.35267584      -1.33773262
H       -1.28242814      -0.36436317      -2.79172227
H       -2.13505768       0.31924095      -1.39107773
H        1.78864868       0.01078248       1.99341647
H        0.94522822       0.58397609       3.43333810
H        1.12637116       1.65063832       2.03181574
H       -1.04935549       0.73771777       2.03681537
H       -1.58102063      -1.54859879       1.79707668
H        0.14523037      -1.93117337       1.85098886
H       -0.66391524      -1.31738554       3.29385294
C        0.95754823       0.62185123       2.34235857
N       -0.29629546       0.12127063       1.75248318
C       -0.62035628      -1.24267308       2.20557690
24
Properties=species:S:1:pos:R:3 charge=1 charge_a=1 charge_b=0 selection_a=1-14 selection_b=15-24 scaling=1.25 benchmark_Eint=-21.811 benchmark_unit=kcal/mol group=NHk-N pbc="F F F"
C        1.06652211      -0.79706479      -1.47184673
N       -0.05083616       0.12715400      -1.14237176
H       -0.15888115       0.13784424      -0.05457740
C        0.24824077       1.52062498      -1.56670066
C       -1.34100605      -0.35093270      -1.70641045
H        1.97498516      -0.43695294      -0.99900378
H        1.20446430      -0.83373827      -2.54950092
H        0.82727929      -1.78852357      -1.09990833
H        1.17390621       1.84205506      -1.09932630
H       -0.56488194       2.16829287      -1.25294076
H        0.35068814       1.55901145      -2.64815170
H       -1.53900871      -1.35267584      -1.33773262
H       -1.28242814      -0.36436317      -2.79172227
H       -2.13505768       0.31924095      -1.39107773
H        1.76991036       0.00852244       2.23983382
H        0.92648991       0.58171605       3.67975546
H        1.10763285       1.64837828       2.27823309
H       -1.06809381       0.73545773       2.28323272
H       -1.59975895      -1.55085883       2.04349403
H        0.12649205      -1.93343340       2.09740621
H       -0.68265355      -1.31964558       3.54027029
C        0.93880992       0.61959119       2.58877592
N       -0.31503377       0.11901059       1.99890053
C       -0.63909460      -1.24493311       2.45199425
24
Properties=species:S:1:pos:R:3 charge=1 charge_a=1 charge_b=0 selection_a=1-14 selection_b=15-24 scaling=1.5 benchmark_Eint=-16.191 benchmark_unit=kcal/mol group=NHk-N pbc="F F F"
C        1.06652211      -0.79706479      -1.47184673
N       -0.05083616       0.12715400      -1.14237176
H       -0.15888115       0.13784424      -0.05457740
C        0.24824077       1.52062498      -1.56670066
C       -1.34100605      -0.35093270      -1.70641045
H        1.97498516      -0.43695294      -0.99900378
H        1.20446430      -0.83373827      -2.54950092
H        0.82727929      -1.78852357      -1.09990833
H        1.17390621       1.84205506      -1.09932630
H       -0.56488194       2.16829287      -1.25294076
H        0.35068814       1.55901145      -2.64815170
H       -1.53900871      -1.35267584      -1.33773262
H       -1.28242814      -0.36436317      -2.79172227
H       -2.13505768       0.31924095      -1.39107773
H        1.73867984       0.00475571       2.65052941
H        0.89525938       0.57794932       4.09045104
H        1.07640232       1.64461155       2.68892868
H       -1.09932433       0.73169100       2.69392831
H       -1.63098947      -1.55462556       2.45418962
H        0.09526153      -1.93720013       2.50810180
H       -0.71388407      -1.32341231       3.95096588
C        0.90757940       0.61582446       2.99947151
N       -0.34626429       0.11524387       2.40959612
C       -0.67032512      -1.24869984       2.86268984
24
Properties=species:S:1:pos:R:3 charge=1 charge_a=1 charge_b=0 selection_a=1-14 selection_b=15-24 scaling=2.0 benchmark_Eint=-8.701 benchmark_unit=kcal/mol group=NHk-N pbc="F F F"
C        1.06652211      -0.79706479      -1.47184673
N       -0.05083616       0.12715400      -1.14237176
H       -0.15888115       0.13784424      -0.05457740
C        0.24824077       1.52062498      -1.56670066
C       -1.34100605      -0.35093270      -1.70641045
H        1.97498516      -0.43695294      -0.99900378
H        1.20446430      -0.83373827      -2.54950092
H        0.82727929      -1.78852357      -1.09990833
H        1.17390621       1.84205506      -1.09932630
H       -0.56488194       2.16829287      -1.25294076
H        0.35068814       1.55901145      -2.64815170
H       -1.53900871      -1.35267584      -1.33773262
H       -1.28242814      -0.36436317      -2.79172227
H       -2.13505768       0.31924095      -1.39107773
H        1.67621879      -0.00277775       3.47192058
H        0.83279833       0.57041586       4.91184222
H        1.01394128       1.63707809       3.51031985
H       -1.16178538       0.72415754       3.51531949
H       -1.69345052      -1.56215902       3.27558079
H        0.03280048      -1.94473359       3.32949297
H       -0.77634512      -1.33094576       4.77235705
C        0.84511835       0.60829100       3.82086268
N       -0.40872534       0.10771041       3.23098729
C       -0.73278617      -1.25623330       3.68408101
24
Properties=species:S:1:pos:R:3 charge=1 charge_a=1 charge_b=0 selection_a=1-14 selection_b=15-24 scaling=0.8 benchmark_Eint=-11.009 benchmark_unit=kcal/mol group=NHk-N pbc="F F F"
C        0.22082783      -1.40624366      -1.84943667
N       -0.30412914      -0.07892386      -1.42305279
H       -0.17480445      -0.01149157      -0.37163152
C        0.46184477       1.04212621      -2.03599058
C       -1.76497702       0.04450754      -1.69044502
H        1.27406363      -1.46828141      -1.59440554
H        0.09410231      -1.51410984      -2.92294091
H       -0.32878209      -2.18561066      -1.33090762
H        1.51076563       0.93638042      -1.77757400
H        0.08144032       1.98207440      -1.64850363
H        0.34263933       1.01013997      -3.11528257
H       -2.28564234      -0.76095945      -1.18219391
H       -1.94062336      -0.01969569      -2.76054708
H       -2.11205408       1.00257472      -1.31650167
H       -1.89298428       1.17643880       1.31471853
H       -1.31835658       0.34409762       2.78901577
H       -2.06602491      -0.57354053       1.44906028
H        2.57651960      -1.01113951       1.64801928
H        2.09236369      -0.19763560       0.12727570
H        2.74836945       0.72655647       1.51451181
C       -1.42979697       0.27229872       1.71023031
N       -0.13244115       0.09354345       1.05294108
N        0.82296677       0.05833242       1.82501043
C        2.12746695      -0.11746694       1.21576169
24
Properties=species:S:1:pos:R:3 charge=1 charge_a=1 charge_b=0 selection_a=1-14 selection_b=15-24 scaling=0.85 benchmark_Eint=-14.486 benchmark_unit=kcal/mol group=NHk-N pbc="F F F"
C        0.22082783      -1.40624366      -1.84943667
N       -0.30412914      -0.07892386      -1.42305279
H       -0.17480445      -0.01149157      -0.37163152
C        0.46184477       1.04212621      -2.03599058
C       -1.76497702       0.04450754      -1.69044502
H        1.27406363      -1.46828141      -1.59440554
H        0.09410231      -1.51410984      -2.92294091
H       -0.32878209      -2.18561066      -1.33090762
H        1.51076563       0.93638042      -1.77757400
H        0.08144032       1.98207440      -1.64850363
H        0.34263933       1.01013997      -3.11528257
H       -2.28564234      -0.76095945      -1.18219391
H       -1.94062336      -0.01969569      -2.76054708
H       -2.11205408       1.00257472      -1.31650167
H       -1.89033658       1.18300349       1.40375432
H       -1.31570887       0.35066230       2.87805156
H       -2.06337720      -0.56697584       1.53809607
H        2.57916730      -1.00457483       1.73705506
H        2.09501139      -0.19107091       0.21631149
H        2.75101716       0.73312116       1.60354759
C       -1.42714927       0.27886341       1.79926609
N       -0.12979344       0.10010813       1.14197686
N        0.82561447       0.06489711       1.91404622
C        2.13011466      -0.11090225       1.30479748
24
Properties=species:S:1:pos:R:3 charge=1 charge_a=1 charge_b=0 selection_a=1-14 selection_b=15-24 scaling=0.9 benchmark_Eint=-16.561 benchmark_unit=kcal/mol group=NHk-N pbc="F F F"
C        0.22082783      -1.40624366      -1.84943667
N       -0.30412914      -0.07892386      -1.42305279
H       -0.17480445      -0.01149157      -0.37163152
C        0.46184477       1.04212621      -2.03599058
C       -1.76497702       0.04450754      -1.69044502
H        1.27406363      -1.46828141      -1.59440554
H        0.09410231      -1.51410984      -2.92294091
H       -0.32878209      -2.18561066      -1.33090762
H        1.51076563       0.93638042      -1.77757400
H        0.08144032       1.98207440      -1.64850363
H        0.34263933       1.01013997      -3.11528257
H       -2.28564234      -0.76095945      -1.18219391
H       -1.94062336      -0.01969569      -2.76054708
H       -2.11205408       1.00257472      -1.31650167
H       -1.88768887       1.18956818       1.49279010
H       -1.31306116       0.35722699       2.96708735
H       -2.06072949      -0.56041115       1.62713186
H        2.58181501      -0.99801014       1.82609085
H        2.09765910      -0.18450622       0.30534728
H        2.75366487       0.73968585       1.69258338
C       -1.42450156       0.28542810       1.88830188
N       -0.12714573       0.10667282       1.23101265
N        0.82826218       0.07146180       2.00308200
C        2.13276236      -0.10433756       1.39383327
24
Properties=species:S:1:pos:R:3 charge=1 charge_a=1 charge_b=0 selection_a=1-14 selection_b=15-24 scaling=0.95 benchmark_Eint=-17.64 benchmark_unit=kcal/mol group=NHk-N pbc="F F F"
C        0.22082783      -1.40624366      -1.84943667
N       -0.30412914      -0.07892386      -1.42305279
H       -0.17480445      -0.01149157      -0.37163152
C        0.46184477       1.04212621      -2.03599058
C       -1.76497702       0.04450754      -1.69044502
H        1.27406363      -1.46828141      -1.59440554
H        0.09410231      -1.51410984      -2.92294091
H       -0.32878209      -2.18561066      -1.33090762
H        1.51076563       0.93638042      -1.77757400
H        0.08144032       1.98207440      -1.64850363
H        0.34263933       1.01013997      -3.11528257
H       -2.28564234      -0.76095945      -1.18219391
H       -1.94062336      -0.01969569      -2.76054708
H       -2.11205408       1.00257472      -1.31650167
H       -1.88504116       1.19613287       1.58182589
H       -1.31041346       0.36379168       3.05612313
H       -2.05808179      -0.55384647       1.71616764
H        2.58446272      -0.99144545       1.91512664
H        2.10030681      -0.17794153       0.39438307
H        2.75631257       0.74625054       1.78161917
C       -1.42185385       0.29199279       1.97733767
N       -0.12449803       0.11323751       1.32004844
N        0.83090989       0.07802648       2.09211779
C        2.13541007      -0.09777287       1.48286906
24
Properties=species:S:1:pos:R:3 charge=1 charge_a=1 charge_b=0 selection_a=1-14 selection_b=15-24 scaling=1.0 benchmark_Eint=-18.017 benchmark_unit=kcal/mol group=NHk-N pbc="F F F"
C        0.22082783      -1.40624366      -1.84943667
N       -0.30412914      -0.07892386      -1.42305279
H       -0.17480445      -0.01149157      -0.37163152
C        0.46184477       1.04212621      -2.03599058
C       -1.76497702       0.04450754      -1.69044502
H        1.27406363      -1.46828141      -1.59440554
H        0.09410231      -1.51410984      -2.92294091
H       -0.32878209      -2.18561066      -1.33090762
H        1.51076563       0.93638042      -1.77757400
H        0.08144032       1.98207440      -1.64850363
H        0.34263933       1.01013997      -3.11528257
H       -2.28564234      -0.76095945      -1.18219391
H       -1.94062336      -0.01969569      -2.76054708
H       -2.11205408       1.00257472      -1.31650167
H       -1.88239346       1.20269756       1.67086168
H       -1.30776575       0.37035637       3.14515892
H       -2.05543408      -0.54728178       1.80520343
H        2.58711042      -0.98488076       2.00416243
H        2.10295451      -0.17137684       0.48341885
H        2.75896028       0.75281523       1.87065496
C       -1.41920615       0.29855748       2.06637345
N       -0.12185032       0.11980220       1.40908423
N        0.83355759       0.08459117       2.18115358
C        2.13805778      -0.09120818       1.57190484
24
Properties=species:S:1:pos:R:3 charge=1 charge_a=1 charge_b=0 selection_a=1-14 selection_b=15-24 scaling=1.05 benchmark_Eint=-17.907 benchmark_unit=kcal/mol group=NHk-N pbc="F F F"
C        0.22082783      -1.40624366      -1.84943667
N       -0.30412914      -0.07892386      -1.42305279
H       -0.17480445      -0.01149157      -0.37163152
C        0.46184477       1.04212621      -2.03599058
C       -1.76497702       0.04450754      -1.69044502
H        1.27406363      -1.46828141      -1.59440554
H        0.09410231      -1.51410984      -2.92294091
H       -0.32878209      -2.18561066      -1.33090762
H        1.51076563       0.93638042      -1.77757400
H        0.08144032       1.98207440      -1.64850363
H        0.34263933       1.01013997      -3.11528257
H       -2.28564234      -0.76095945      -1.18219391
H       -1.94062336      -0.01969569      -2.76054708
H       -2.11205408       1.00257472      -1.31650167
H       -1.87974575       1.20926224       1.75989746
H       -1.30511804       0.37692106       3.23419471
H       -2.05278638      -0.54071709       1.89423922
H        2.58975813      -0.97831607       2.09319821
H        2.10560222      -0.16481216       0.57245464
H        2.76160798       0.75937992       1.95969074
C       -1.41655844       0.30512216       2.15540924
N       -0.11920261       0.12636689       1.49812001
N        0.83620530       0.09115586       2.27018936
C        2.14070548      -0.08464350       1.66094063
24
Properties=species:S:1:pos:R:3 charge=1 charge_a=1 charge_b=0 selection_a=1-14 selection_b=15-24 scaling=1.1 benchmark_Eint=-17.466 benchmark_unit=kcal/mol group=NHk-N pbc="F F F"
C        0.22082783      -1.40624366      -1.84943667
N       -0.30412914      -0.07892386      -1.42305279
H       -0.17480445      -0.01149157      -0.37163152
C        0.46184477       1.04212621      -2.03599058
C       -1.76497702       0.04450754      -1.69044502
H        1.27406363      -1.46828141      -1.59440554
H        0.09410231      -1.51410984      -2.92294091
H       -0.32878209      -2.18561066      -1.33090762
H        1.51076563       0.93638042      -1.77757400
H        0.08144032       1.98207440      -1.64850363
H        0.34263933       1.01013997      -3.11528257
H       -2.28564234      -0.76095945      -1.18219391
H       -1.94062336      -0.01969569      -2.76054708
H       -2.11205408       1.00257472      -1.31650167
H       -1.87709804       1.21582693       1.84893325
H       -1.30247034       0.38348574       3.32323050
H       -2.05013867      -0.53415240       1.98327500
H        2.59240583      -0.97175139       2.18223400
H        2.10824992      -0.15824747       0.66149043
H        2.76425569       0.76594460       2.04872653
C       -1.41391074       0.31168685       2.24444503
N       -0.11655491       0.13293157       1.58715580
N        0.83885300       0.09772055       2.35922515
C        2.14335319      -0.07807881       1.74997642
24
Properties=species:S:1:pos:R:3 charge=1 charge_a=1 charge_b=0 selection_a=1-14 selection_b=15-24 scaling=1.25 benchmark_Eint=-15.162 benchmark_unit=kcal/mol group=NHk-N pbc="F F F"
C        0.22082783      -1.40624366      -1.84943667
N       -0.30412914      -0.07892386      -1.42305279
H       -0.17480445      -0.01149157      -0.37163152
C        0.46184477       1.04212621      -2.03599058
C       -1.76497702       0.04450754      -1.69044502
H        1.27406363      -1.46828141      -1.59440554
H        0.09410231      -1.51410984      -2.92294091
H       -0.32878209      -2.18561066      -1.33090762
H        1.51076563       0.93638042      -1.77757400
H        0.08144032       1.98207440      -1.64850363
H        0.34263933       1.01013997      -3.11528257
H       -2.28564234      -0.76095945      -1.18219391
H       -1.94062336      -0.01969569      -2.76054708
H       -2.11205408       1.00257472      -1.31650167
H       -1.86915492       1.23552100       2.11604061
H       -1.29452722       0.40317981       3.59033786
H       -2.04219555      -0.51445834       2.25038237
H        2.60034895      -0.95205732       2.44934136
H        2.11619304      -0.13855340       0.92859779
H        2.77219881       0.78563867       2.31583389
C       -1.40596762       0.33138092       2.51155239
N       -0.10861179       0.15262564       1.85426316
N        0.84679612       0.11741461       2.62633251
C        2.15129631      -0.05838474       2.01708378
24
Properties=species:S:1:pos:R:3 charge=1 charge_a=1 charge_b=0 selection_a=1-14 selection_b=15-24 scaling=1.5 benchmark_Eint=-10.88 benchmark_unit=kcal/mol group=NHk-N pbc="F F F"
C        0.22082783      -1.40624366      -1.84943667
N       -0.30412914      -0.07892386      -1.42305279
H       -0.17480445      -0.01149157      -0.37163152
C        0.46184477       1.04212621      -2.03599058
C       -1.76497702       0.04450754      -1.69044502
H        1.27406363      -1.46828141      -1.59440554
H        0.09410231      -1.51410984      -2.92294091
H       -0.32878209      -2.18561066      -1.33090762
H        1.51076563       0.93638042      -1.77757400
H        0.08144032       1.98207440      -1.64850363
H        0.34263933       1.01013997      -3.11528257
H       -2.28564234      -0.76095945      -1.18219391
H       -1.94062336      -0.01969569      -2.76054708
H       -2.11205408       1.00257472      -1.31650167
H       -1.85591639       1.26834444       2.56121955
H       -1.28128869       0.43600325       4.03551679
H       -2.02895702      -0.48163490       2.69556130
H        2.61358748      -0.91923388       2.89452030
H        2.12943157      -0.10572996       1.37377672
H        2.78543734       0.81846211       2.76101283
C       -1.39272909       0.36420436       2.95673133
N       -0.09537326       0.18544908       2.29944210
N        0.86003465       0.15023805       3.07151145
C        2.16453484      -0.02556130       2.46226271
24
Properties=species:S:1:pos:R:3 charge=1 charge_a=1 charge_b=0 selection_a=1-14 selection_b=15-24 scaling=2.0 benchmark_Eint=-5.407 benchmark_unit=kcal/mol group=NHk-N pbc="F F F"
C        0.22082783      -1.40624366      -1.84943667
N       -0.30412914      -0.07892386      -1.42305279
H       -0.17480445      -0.01149157      -0.37163152
C        0.46184477       1.04212621      -2.03599058
C       -1.76497702       0.04450754      -1.69044502
H        1.27406363      -1.46828141      -1.59440554
H        0.09410231      -1.51410984      -2.92294091
H       -0.32878209      -2.18561066      -1.33090762
H        1.51076563       0.93638042      -1.77757400
H        0.08144032       1.98207440      -1.64850363
H        0.34263933       1.01013997      -3.11528257
H       -2.28564234      -0.76095945      -1.18219391
H       -1.94062336      -0.01969569      -2.76054708
H       -2.11205408       1.00257472      -1.31650167
H       -1.82943933       1.33399132       3.45157742
H       -1.25481163       0.50165013       4.92587467
H       -2.00247996      -0.41598801       3.58591917
H        2.64006455      -0.85358700       3.78487817
H        2.15590864      -0.04008308       2.26413460
H        2.81191440       0.88410899       3.65137070
C       -1.36625202       0.42985124       3.84708920
N       -0.06889619       0.25109596       3.18979997
N        0.88651172       0.21588494       3.96186932
C        2.19101190       0.04008558       3.35262059
21
Properties=species:S:1:pos:R:3 charge=1 charge_a=1 charge_b=0 selection_a=1-14 selection_b=15-21 scaling=0.8 benchmark_Eint=-16.12 benchmark_unit=kcal/mol group=NHk-N pbc="F F F"
C        0.61525689      -1.26511148      -1.12740996
N       -0.14009335      -0.01401027      -0.84625038
H       -0.28353547       0.04022911       0.22107280
C        0.62895341       1.19415226      -1.25064125
C       -1.49121925      -0.03781469      -1.46999627
H        1.57450847      -1.22038414      -0.62123016
H        0.76913642      -1.36294845      -2.19873452
H        0.04471375      -2.11256648      -0.75985972
H        1.58587787       1.19225165      -0.73802195
H        0.06583392       2.08048144      -0.97477021
H        0.78795580       1.17997101      -2.32557965
H       -2.03242314      -0.90676861      -1.10842285
H       -1.39046818      -0.09080125      -2.55070996
H       -2.02393018       0.86719838      -1.19445561
N       -0.41594439       0.10292217       1.57239811
H       -1.03600883      -0.62651897       1.90750591
H       -0.85361107       0.97524754       1.84872611
C        0.90163205      -0.02263532       2.23698929
H        1.55492854       0.77646593       1.89396203
H        0.83602622       0.02932003       3.32283789
H        1.35188155      -0.97463806       1.96531951
21
Properties=species:S:1:pos:R:3 charge=1 charge_a=1 charge_b=0 selection_a=1-14 selection_b=15-21 scaling=0.85 benchmark_Eint=-19.848 benchmark_unit=kcal/mol group=NHk-N pbc="F F F"
C        0.61525689      -1.26511148      -1.12740996
N       -0.14009335      -0.01401027      -0.84625038
H       -0.28353547       0.04022911       0.22107280
C        0.62895341       1.19415226      -1.25064125
C       -1.49121925      -0.03781469      -1.46999627
H        1.57450847      -1.22038414      -0.62123016
H        0.76913642      -1.36294845      -2.19873452
H        0.04471375      -2.11256648      -0.75985972
H        1.58587787       1.19225165      -0.73802195
H        0.06583392       2.08048144      -0.97477021
H        0.78795580       1.17997101      -2.32557965
H       -2.03242314      -0.90676861      -1.10842285
H       -1.39046818      -0.09080125      -2.55070996
H       -2.02393018       0.86719838      -1.19445561
N       -0.42421995       0.10684048       1.65685595
H       -1.04428439      -0.62260066       1.99196374
H       -0.86188663       0.97916585       1.93318394
C        0.89335650      -0.01871700       2.32144713
H        1.54665299       0.78038425       1.97841986
H        0.82775066       0.03323835       3.40729572
H        1.34360599      -0.97071974       2.04977734
21
Properties=species:S:1:pos:R:3 charge=1 charge_a=1 charge_b=0 selection_a=1-14 selection_b=15-21 scaling=0.9 benchmark_Eint=-22.06 benchmark_unit=kcal/mol group=NHk-N pbc="F F F"
C        0.61525689      -1.26511148      -1.12740996
N       -0.14009335      -0.01401027      -0.84625038
H       -0.28353547       0.04022911       0.22107280
C        0.62895341       1.19415226      -1.25064125
C       -1.49121925      -0.03781469      -1.46999627
H        1.57450847      -1.22038414      -0.62123016
H        0.76913642      -1.36294845      -2.19873452
H        0.04471375      -2.11256648      -0.75985972
H        1.58587787       1.19225165      -0.73802195
H        0.06583392       2.08048144      -0.97477021
H        0.78795580       1.17997101      -2.32557965
H       -2.03242314      -0.90676861      -1.10842285
H       -1.39046818      -0.09080125      -2.55070996
H       -2.02393018       0.86719838      -1.19445561
N       -0.43249551       0.11075880       1.74131378
H       -1.05255994      -0.61868234       2.07642158
H       -0.87016219       0.98308417       2.01764178
C        0.88508094      -0.01479869       2.40590496
H        1.53837743       0.78430256       2.06287770
H        0.81947510       0.03715666       3.49175355
H        1.33533043      -0.96680143       2.13423517
21
Properties=species:S:1:pos:R:3 charge=1 charge_a=1 charge_b=0 selection_a=1-14 selection_b=15-21 scaling=0.95 benchmark_Eint=-23.188 benchmark_unit=kcal/mol group=NHk-N pbc="F F F"
C        0.61525689      -1.26511148      -1.12740996
N       -0.14009335      -0.01401027      -0.84625038
H       -0.28353547       0.04022911       0.22107280
C        0.62895341       1.19415226      -1.25064125
C       -1.49121925      -0.03781469      -1.46999627
H        1.57450847      -1.22038414      -0.62123016
H        0.76913642      -1.36294845      -2.19873452
H        0.04471375      -2.11256648      -0.75985972
H        1.58587787       1.19225165      -0.73802195
H        0.06583392       2.08048144      -0.97477021
H        0.78795580       1.17997101      -2.32557965
H       -2.03242314      -0.90676861      -1.10842285
H       -1.39046818      -0.09080125      -2.55070996
H       -2.02393018       0.86719838      -1.19445561
N       -0.44077106       0.11467711       1.82577161
H       -1.06083550      -0.61476403       2.16087941
H       -0.87843774       0.98700249       2.10209961
C        0.87680538      -0.01088037       2.49036279
H        1.53010187       0.78822088       2.14733553
H        0.81119955       0.04107498       3.57621138
H        1.32705487      -0.96288311       2.21869300
21
Properties=species:S:1:pos:R:3 charge=1 charge_a=1 charge_b=0 selection_a=1-14 selection_b=15-21 scaling=1.0 benchmark_Eint=-23.55 benchmark_unit=kcal/mol group=NHk-N pbc="F F F"
C        0.61525689      -1.26511148      -1.12740996
N       -0.14009335      -0.01401027      -0.84625038
H       -0.28353547       0.04022911       0.22107280
C        0.62895341       1.19415226      -1.25064125
C       -1.49121925      -0.03781469      -1.46999627
H        1.57450847      -1.22038414      -0.62123016
H        0.76913642      -1.36294845      -2.19873452
H        0.04471375      -2.11256648      -0.75985972
H        1.58587787       1.19225165      -0.73802195
H        0.06583392       2.08048144      -0.97477021
H        0.78795580       1.17997101      -2.32557965
H       -2.03242314      -0.90676861      -1.10842285
H       -1.39046818      -0.09080125      -2.55070996
H       -2.02393018       0.86719838      -1.19445561
N       -0.44904662       0.11859543       1.91022944
H       -1.06911106      -0.61084571       2.24533724
H       -0.88671330       0.99092080       2.18655744
C        0.86852982      -0.00696205       2.57482062
H        1.52182631       0.79213920       2.23179336
H        0.80292399       0.04499330       3.66066921
H        1.31877932      -0.95896479       2.30315084
21
Properties=species:S:1:pos:R:3 charge=1 charge_a=1 charge_b=0 selection_a=1-14 selection_b=15-21 scaling=1.05 benchmark_Eint=-23.376 benchmark_unit=kcal/mol group=NHk-N pbc="F F F"
C        0.61525689      -1.26511148      -1.12740996
N       -0.14009335      -0.01401027      -0.84625038
H       -0.28353547       0.04022911       0.22107280
C        0.62895341       1.19415226      -1.25064125
C       -1.49121925      -0.03781469      -1.46999627
H        1.57450847      -1.22038414      -0.62123016
H        0.76913642      -1.36294845      -2.19873452
H        0.04471375      -2.11256648      -0.75985972
H        1.58587787       1.19225165      -0.73802195
H        0.06583392       2.08048144      -0.97477021
H        0.78795580       1.17997101      -2.32557965
H       -2.03242314      -0.90676861      -1.10842285
H       -1.39046818      -0.09080125      -2.55070996
H       -2.02393018       0.86719838      -1.19445561
N       -0.45732218       0.12251375       1.99468727
H       -1.07738662      -0.60692739       2.32979507
H       -0.89498886       0.99483912       2.27101527
C        0.86025427      -0.00304374       2.65927846
H        1.51355076       0.79605751       2.31625119
H        0.79464843       0.04891161       3.74512705
H        1.31050376      -0.95504648       2.38760867
21
Properties=species:S:1:pos:R:3 charge=1 charge_a=1 charge_b=0 selection_a=1-14 selection_b=15-21 scaling=1.1 benchmark_Eint=-22.835 benchmark_unit=kcal/mol group=NHk-N pbc="F F F"
C        0.61525689      -1.26511148      -1.12740996
N       -0.14009335      -0.01401027      -0.84625038
H       -0.28353547       0.04022911       0.22107280
C        0.62895341       1.19415226      -1.25064125
C       -1.49121925      -0.03781469      -1.46999627
H        1.57450847      -1.22038414      -0.62123016
H        0.76913642      -1.36294845      -2.19873452
H        0.04471375      -2.11256648      -0.75985972
H        1.58587787       1.19225165      -0.73802195
H        0.06583392       2.08048144      -0.97477021
H        0.78795580       1.17997101      -2.32557965
H       -2.03242314      -0.90676861      -1.10842285
H       -1.39046818      -0.09080125      -2.55070996
H       -2.02393018       0.86719838      -1.19445561
N       -0.46559774       0.12643206       2.07914511
H       -1.08566217      -0.60300908       2.41425291
H       -0.90326442       0.99875743       2.35547310
C        0.85197871       0.00087458       2.74373629
H        1.50527520       0.79997583       2.40070902
H        0.78637287       0.05282993       3.82958488
H        1.30222820      -0.95112816       2.47206650
21
Properties=species:S:1:pos:R:3 charge=1 charge_a=1 charge_b=0 selection_a=1-14 selection_b=15-21 scaling=1.25 benchmark_Eint=-20.1 benchmark_unit=kcal/mol group=NHk-N pbc="F F F"
C        0.61525689      -1.26511148      -1.12740996
N       -0.14009335      -0.01401027      -0.84625038
H       -0.28353547       0.04022911       0.22107280
C        0.62895341       1.19415226      -1.25064125
C       -1.49121925      -0.03781469      -1.46999627
H        1.57450847      -1.22038414      -0.62123016
H        0.76913642      -1.36294845      -2.19873452
H        0.04471375      -2.11256648      -0.75985972
H        1.58587787       1.19225165      -0.73802195
H        0.06583392       2.08048144      -0.97477021
H        0.78795580       1.17997101      -2.32557965
H       -2.03242314      -0.90676861      -1.10842285
H       -1.39046818      -0.09080125      -2.55070996
H       -2.02393018       0.86719838      -1.19445561
N       -0.49042441       0.13818701       2.33251860
H       -1.11048885      -0.59125413       2.66762640
H       -0.92809109       1.01051238       2.60884660
C        0.82715204       0.01262953       2.99710979
H        1.48044853       0.81173078       2.65408252
H        0.76154620       0.06458488       4.08295838
H        1.27740153      -0.93937321       2.72544000
21
Properties=species:S:1:pos:R:3 charge=1 charge_a=1 charge_b=0 selection_a=1-14 selection_b=15-21 scaling=1.5 benchmark_Eint=-14.983 benchmark_unit=kcal/mol group=NHk-N pbc="F F F"
C        0.61525689      -1.26511148      -1.12740996
N       -0.14009335      -0.01401027      -0.84625038
H       -0.28353547       0.04022911       0.22107280
C        0.62895341       1.19415226      -1.25064125
C       -1.49121925      -0.03781469      -1.46999627
H        1.57450847      -1.22038414      -0.62123016
H        0.76913642      -1.36294845      -2.19873452
H        0.04471375      -2.11256648      -0.75985972
H        1.58587787       1.19225165      -0.73802195
H        0.06583392       2.08048144      -0.97477021
H        0.78795580       1.17997101      -2.32557965
H       -2.03242314      -0.90676861      -1.10842285
H       -1.39046818      -0.09080125      -2.55070996
H       -2.02393018       0.86719838      -1.19445561
N       -0.53180219       0.15777859       2.75480776
H       -1.15186663      -0.57166255       3.08991556
H       -0.96946888       1.03010396       3.03113576
C        0.78577425       0.03222111       3.41939895
H        1.43907074       0.83132236       3.07637168
H        0.72016842       0.08417646       4.50524754
H        1.23602374      -0.91978163       3.14772916
21
Properties=species:S:1:pos:R:3 charge=1 charge_a=1 charge_b=0 selection_a=1-14 selection_b=15-21 scaling=2.0 benchmark_Eint=-8.255 benchmark_unit=kcal/mol group=NHk-N pbc="F F F"
C        0.61525689      -1.26511148      -1.12740996
N       -0.14009335      -0.01401027      -0.84625038
H       -0.28353547       0.04022911       0.22107280
C        0.62895341       1.19415226      -1.25064125
C       -1.49121925      -0.03781469      -1.46999627
H        1.57450847      -1.22038414      -0.62123016
H        0.76913642      -1.36294845      -2.19873452
H        0.04471375      -2.11256648      -0.75985972
H        1.58587787       1.19225165      -0.73802195
H        0.06583392       2.08048144      -0.97477021
H        0.78795580       1.17997101      -2.32557965
H       -2.03242314      -0.90676861      -1.10842285
H       -1.39046818      -0.09080125      -2.55070996
H       -2.02393018       0.86719838      -1.19445561
N       -0.61455777       0.19696176       3.59938609
H       -1.23462221      -0.53247938       3.93449389
H       -1.05222445       1.06928713       3.87571408
C        0.70301867       0.07140427       4.26397727
H        1.35631517       0.87050552       3.92095000
H        0.63741284       0.12335962       5.34982586
H        1.15326817      -0.88059847       3.99230748
21
Properties=species:S:1:pos:R:3 charge=1 charge_a=1 charge_b=0 selection_a=1-14 selection_b=15-21 scaling=0.8 benchmark_Eint=-8.884 benchmark_unit=kcal/mol group=NHk-N pbc="F F F"
C        0.80451751      -1.37367486      -1.96632508
N        0.13650923      -0.11341630      -1.52957971
H        0.22886762      -0.05714847      -0.48799965
C        0.80042762       1.09382194      -2.10154598
C       -1.32510290      -0.13328110      -1.83117512
H        1.85317277      -1.33105394      -1.68975174
H        0.70985844      -1.47082927      -3.04401860
H        0.32593222      -2.21392170      -1.47354985
H        1.84771845       1.08832175      -1.81685602
H        0.31573813       1.98140151      -1.70768352
H        0.71013141       1.06953522      -3.18372137
H       -1.77213934      -0.99672038      -1.34862079
H       -1.46517778      -0.19572729      -2.90644226
H       -1.77546422       0.77876532      -1.45215139
H        1.41209543      -0.99005457       2.45520700
H        1.70267928       0.76532483       2.35359269
H        2.33912974      -0.31695500       1.10545582
C        1.50988072      -0.14056047       1.78135318
N        0.29690636       0.01143200       0.94070983
N       -0.75152215       0.22390019       1.56753310
N       -1.74784415       0.41870436       2.04505360
21
Properties=species:S:1:pos:R:3 charge=1 charge_a=1 charge_b=0 selection_a=1-14 selection_b=15-21 scaling=0.85 benchmark_Eint=-12.129 benchmark_unit=kcal/mol group=NHk-N pbc="F F F"
C        0.80451751      -1.37367486      -1.96632508
N        0.13650923      -0.11341630      -1.52957971
H        0.22886762      -0.05714847      -0.48799965
C        0.80042762       1.09382194      -2.10154598
C       -1.32510290      -0.13328110      -1.83117512
H        1.85317277      -1.33105394      -1.68975174
H        0.70985844      -1.47082927      -3.04401860
H        0.32593222      -2.21392170      -1.47354985
H        1.84771845       1.08832175      -1.81685602
H        0.31573813       1.98140151      -1.70768352
H        0.71013141       1.06953522      -3.18372137
H       -1.77213934      -0.99672038      -1.34862079
H       -1.46517778      -0.19572729      -2.90644226
H       -1.77546422       0.77876532      -1.45215139
H        1.41634785      -0.98576829       2.54450134
H        1.70693170       0.76961111       2.44288703
H        2.34338216      -0.31266872       1.19475016
C        1.51413314      -0.13627419       1.87064752
N        0.30115878       0.01571828       1.03000417
N       -0.74726973       0.22818647       1.65682744
N       -1.74359173       0.42299064       2.13434795
21
Properties=species:S:1:pos:R:3 charge=1 charge_a=1 charge_b=0 selection_a=1-14 selection_b=15-21 scaling=0.9 benchmark_Eint=-14.04 benchmark_unit=kcal/mol group=NHk-N pbc="F F F"
C        0.80451751      -1.37367486      -1.96632508
N        0.13650923      -0.11341630      -1.52957971
H        0.22886762      -0.05714847      -0.48799965
C        0.80042762       1.09382194      -2.10154598
C       -1.32510290      -0.13328110      -1.83117512
H        1.85317277      -1.33105394      -1.68975174
H        0.70985844      -1.47082927      -3.04401860
H        0.32593222      -2.21392170      -1.47354985
H        1.84771845       1.08832175      -1.81685602
H        0.31573813       1.98140151      -1.70768352
H        0.71013141       1.06953522      -3.18372137
H       -1.77213934      -0.99672038      -1.34862079
H       -1.46517778      -0.19572729      -2.90644226
H       -1.77546422       0.77876532      -1.45215139
H        1.42060027      -0.98148201       2.63379568
H        1.71118412       0.77389739       2.53218137
H        2.34763458      -0.30838244       1.28404450
C        1.51838556      -0.13198791       1.95994186
N        0.30541120       0.02000456       1.11929851
N       -0.74301731       0.23247275       1.74612178
N       -1.73933931       0.42727692       2.22364229
21
Properties=species:S:1:pos:R:3 charge=1 charge_a=1 charge_b=0 selection_a=1-14 selection_b=15-21 scaling=0.95 benchmark_Eint=-15.012 benchmark_unit=kcal/mol group=NHk-N pbc="F F F"
C        0.80451751      -1.37367486      -1.96632508
N        0.13650923      -0.11341630      -1.52957971
H        0.22886762      -0.05714847      -0.48799965
C        0.80042762       1.09382194      -2.10154598
C       -1.32510290      -0.13328110      -1.83117512
H        1.85317277      -1.33105394      -1.68975174
H        0.70985844      -1.47082927      -3.04401860
H        0.32593222      -2.21392170      -1.47354985
H        1.84771845       1.08832175      -1.81685602
H        0.31573813       1.98140151      -1.70768352
H        0.71013141       1.06953522      -3.18372137
H       -1.77213934      -0.99672038      -1.34862079
H       -1.46517778      -0.19572729      -2.90644226
H       -1.77546422       0.77876532      -1.45215139
H        1.42485269      -0.97719573       2.72309003
H        1.71543655       0.77818367       2.62147572
H        2.35188700      -0.30409616       1.37333885
C        1.52263798      -0.12770163       2.04923620
N        0.30966362       0.02429084       1.20859285
N       -0.73876489       0.23675902       1.83541613
N       -1.73508689       0.43156320       2.31293663
21
Properties=species:S:1:pos:R:3 charge=1 charge_a=1 charge_b=0 selection_a=1-14 selection_b=15-21 scaling=1.0 benchmark_Eint=-15.332 benchmark_unit=kcal/mol group=NHk-N pbc="F F F"
C        0.80451751      -1.37367486      -1.96632508
N        0.13650923      -0.11341630      -1.52957971
H        0.22886762      -0.05714847      -0.48799965
C        0.80042762       1.09382194      -2.10154598
C       -1.32510290      -0.13328110      -1.83117512
H        1.85317277      -1.33105394      -1.68975174
H        0.70985844      -1.47082927      -3.04401860
H        0.32593222      -2.21392170      -1.47354985
H        1.84771845       1.08832175      -1.81685602
H        0.31573813       1.98140151      -1.70768352
H        0.71013141       1.06953522      -3.18372137
H       -1.77213934      -0.99672038      -1.34862079
H       -1.46517778      -0.19572729      -2.90644226
H       -1.77546422       0.77876532      -1.45215139
H        1.42910511      -0.97290945       2.81238437
H        1.71968897       0.78246995       2.71077006
H        2.35613942      -0.29980988       1.46263319
C        1.52689041      -0.12341535       2.13853054
N        0.31391604       0.02857712       1.29788719
N       -0.73451247       0.24104530       1.92471047
N       -1.73083446       0.43584948       2.40223097
21
Properties=species:S:1:pos:R:3 charge=1 charge_a=1 charge_b=0 selection_a=1-14 selection_b=15-21 scaling=1.05 benchmark_Eint=-15.206 benchmark_unit=kcal/mol group=NHk-N pbc="F F F"
C        0.80451751      -1.37367486      -1.96632508
N        0.13650923      -0.11341630      -1.52957971
H        0.22886762      -0.05714847      -0.48799965
C        0.80042762       1.09382194      -2.10154598
C       -1.32510290      -0.13328110      -1.83117512
H        1.85317277      -1.33105394      -1.68975174
H        0.70985844      -1.47082927      -3.04401860
H        0.32593222      -2.21392170      -1.47354985
H        1.84771845       1.08832175      -1.81685602
H        0.31573813       1.98140151      -1.70768352
H        0.71013141       1.06953522      -3.18372137
H       -1.77213934      -0.99672038      -1.34862079
H       -1.46517778      -0.19572729      -2.90644226
H       -1.77546422       0.77876532      -1.45215139
H        1.43335753      -0.96862317       2.90167871
H        1.72394139       0.78675623       2.80006440
H        2.36039184      -0.29552360       1.55192753
C        1.53114283      -0.11912907       2.22782489
N        0.31816847       0.03286340       1.38718154
N       -0.73026005       0.24533158       2.01400481
N       -1.72658204       0.44013576       2.49152532
21
Properties=species:S:1:pos:R:3 charge=1 charge_a=1 charge_b=0 selection_a=1-14 selection_b=15-21 scaling=1.1 benchmark_Eint=-14.786 benchmark_unit=kcal/mol group=NHk-N pbc="F F F"
C        0.80451751      -1.37367486      -1.96632508
N        0.13650923      -0.11341630      -1.52957971
H        0.22886762      -0.05714847      -0.48799965
C        0.80042762       1.09382194      -2.10154598
C       -1.32510290      -0.13328110      -1.83117512
H        1.85317277      -1.33105394      -1.68975174
H        0.70985844      -1.47082927      -3.04401860
H        0.32593222      -2.21392170      -1.47354985
H        1.84771845       1.08832175      -1.81685602
H        0.31573813       1.98140151      -1.70768352
H        0.71013141       1.06953522      -3.18372137
H       -1.77213934      -0.99672038      -1.34862079
H       -1.46517778      -0.19572729      -2.90644226
H       -1.77546422       0.77876532      -1.45215139
H        1.43760995      -0.96433689       2.99097305
H        1.72819381       0.79104251       2.88935875
H        2.36464426      -0.29123732       1.64122187
C        1.53539525      -0.11484279       2.31711923
N        0.32242089       0.03714968       1.47647588
N       -0.72600762       0.24961786       2.10329915
N       -1.72232962       0.44442204       2.58081966
21
Properties=species:S:1:pos:R:3 charge=1 charge_a=1 charge_b=0 selection_a=1-14 selection_b=15-21 scaling=1.25 benchmark_Eint=-12.701 benchmark_unit=kcal/mol group=NHk-N pbc="F F F"
C        0.80451751      -1.37367486      -1.96632508
N        0.13650923      -0.11341630      -1.52957971
H        0.22886762      -0.05714847      -0.48799965
C        0.80042762       1.09382194      -2.10154598
C       -1.32510290      -0.13328110      -1.83117512
H        1.85317277      -1.33105394      -1.68975174
H        0.70985844      -1.47082927      -3.04401860
H        0.32593222      -2.21392170      -1.47354985
H        1.84771845       1.08832175      -1.81685602
H        0.31573813       1.98140151      -1.70768352
H        0.71013141       1.06953522      -3.18372137
H       -1.77213934      -0.99672038      -1.34862079
H       -1.46517778      -0.19572729      -2.90644226
H       -1.77546422       0.77876532      -1.45215139
H        1.45036722      -0.95147806       3.25885608
H        1.74095107       0.80390135       3.15724177
H        2.37740153      -0.27837848       1.90910490
C        1.54815251      -0.10198395       2.58500226
N        0.33517815       0.05000852       1.74435891
N       -0.71325036       0.26247670       2.37118218
N       -1.70957236       0.45728088       2.84870269
21
Properties=species:S:1:pos:R:3 charge=1 charge_a=1 charge_b=0 selection_a=1-14 selection_b=15-21 scaling=1.5 benchmark_Eint=-9.043 benchmark_unit=kcal/mol group=NHk-N pbc="F F F"
C        0.80451751      -1.37367486      -1.96632508
N        0.13650923      -0.11341630      -1.52957971
H        0.22886762      -0.05714847      -0.48799965
C        0.80042762       1.09382194      -2.10154598
C       -1.32510290      -0.13328110      -1.83117512
H        1.85317277      -1.33105394      -1.68975174
H        0.70985844      -1.47082927      -3.04401860
H        0.32593222      -2.21392170      -1.47354985
H        1.84771845       1.08832175      -1.81685602
H        0.31573813       1.98140151      -1.70768352
H        0.71013141       1.06953522      -3.18372137
H       -1.77213934      -0.99672038      -1.34862079
H       -1.46517778      -0.19572729      -2.90644226
H       -1.77546422       0.77876532      -1.45215139
H        1.47162932      -0.93004666       3.70532779
H        1.76221318       0.82533275       3.60371348
H        2.39866363      -0.25694709       2.35557661
C        1.56941462      -0.08055255       3.03147397
N        0.35644026       0.07143992       2.19083062
N       -0.69198825       0.28390810       2.81765389
N       -1.68831025       0.47871228       3.29517440
21
Properties=species:S:1:pos:R:3 charge=1 charge_a=1 charge_b=0 selection_a=1-14 selection_b=15-21 scaling=2.0 benchmark_Eint=-4.721 benchmark_unit=kcal/mol group=NHk-N pbc="F F F"
C        0.80451751      -1.37367486      -1.96632508
N        0.13650923      -0.11341630      -1.52957971
H        0.22886762      -0.05714847      -0.48799965
C        0.80042762       1.09382194      -2.10154598
C       -1.32510290      -0.13328110      -1.83117512
H        1.85317277      -1.33105394      -1.68975174
H        0.70985844      -1.47082927      -3.04401860
H        0.32593222      -2.21392170      -1.47354985
H        1.84771845       1.08832175      -1.81685602
H        0.31573813       1.98140151      -1.70768352
H        0.71013141       1.06953522      -3.18372137
H       -1.77213934      -0.99672038      -1.34862079
H       -1.46517778      -0.19572729      -2.90644226
H       -1.77546422       0.77876532      -1.45215139
H        1.51415354      -0.88718386       4.59827122
H        1.80473739       0.86819554       4.49665691
H        2.44118784      -0.21408429       3.24852003
C        1.61193883      -0.03768976       3.92441739
N        0.39896447       0.11430271       3.08377404
N       -0.64946404       0.32677089       3.71059731
N       -1.64578604       0.52157507       4.18811782
27
Properties=species:S:1:pos:R:3 charge=1 charge_a=1 charge_b=0 selection_a=1-14 selection_b=15-27 scaling=0.8 benchmark_Eint=-18.887 benchmark_unit=kcal/mol group=NHk-N pbc="F F F"
C       -1.01077706       1.79461716       1.01419133
N       -0.00123449       1.36226518       0.01300845
H       -0.00045350       0.25495301       0.00251074
C       -0.36037555       1.81751750      -1.35528734
C        1.36655041       1.80213794       0.39267730
H       -1.98426674       1.41131314       0.72409338
H       -1.04353472       2.88055215       1.05715331
H       -0.73668548       1.39898382       1.98739062
H       -1.34300034       1.43257309      -1.61030634
H        0.37490510       1.43939348      -2.05895304
H       -0.37350300       2.90419264      -1.38902136
H        1.60563849       1.40761980       1.37550589
H        1.41011714       2.88832636       0.41433339
H        2.07590526       1.42291369      -0.33655148
H        1.03559975      -2.57160739      -1.05365212
H        0.72559563      -1.09976211      -1.98451030
H        1.97686100      -1.10936263      -0.72993063
H        1.34801647      -1.13365751       1.60392507
H        0.37706795      -2.59584347       1.38436952
H       -0.36413887      -1.13887163       2.06023109
H       -1.40503924      -2.58069427      -0.40493249
H       -2.07101800      -1.12555457       0.34871056
C        0.98995501      -1.48006986      -0.99978194
N        0.00075406      -1.02941900      -0.00976819
C        0.36052164      -1.50327389       1.33476296
C       -1.34662332      -1.48877555      -0.37760233
H       -1.61017009      -1.10739308      -1.36214038
27
Properties=species:S:1:pos:R:3 charge=1 charge_a=1 charge_b=0 selection_a=1-14 selection_b=15-27 scaling=0.85 benchmark_Eint=-23.042 benchmark_unit=kcal/mol group=NHk-N pbc="F F F"
C       -1.01077706       1.79461716       1.01419133
N       -0.00123449       1.36226518       0.01300845
H       -0.00045350       0.25495301       0.00251074
C       -0.36037555       1.81751750      -1.35528734
C        1.36655041       1.80213794       0.39267730
H       -1.98426674       1.41131314       0.72409338
H       -1.04353472       2.88055215       1.05715331
H       -0.73668548       1.39898382       1.98739062
H       -1.34300034       1.43257309      -1.61030634
H        0.37490510       1.43939348      -2.05895304
H       -0.37350300       2.90419264      -1.38902136
H        1.60563849       1.40761980       1.37550589
H        1.41011714       2.88832636       0.41433339
H        2.07590526       1.42291369      -0.33655148
H        1.03567522      -2.65188064      -1.05441956
H        0.72567110      -1.18003536      -1.98527773
H        1.97693647      -1.18963588      -0.73069806
H        1.34809194      -1.21393076       1.60315764
H        0.37714343      -2.67611672       1.38360209
H       -0.36406340      -1.21914488       2.05946366
H       -1.40496377      -2.66096752      -0.40569992
H       -2.07094253      -1.20582782       0.34794313
C        0.99003048      -1.56034311      -1.00054937
N        0.00082953      -1.10969225      -0.01053562
C        0.36059711      -1.58354714       1.33399553
C       -1.34654785      -1.56904880      -0.37836977
H       -1.61009462      -1.18766633      -1.36290781
27
Properties=species:S:1:pos:R:3 charge=1 charge_a=1 charge_b=0 selection_a=1-14 selection_b=15-27 scaling=0.9 benchmark_Eint=-25.487 benchmark_unit=kcal/mol group=NHk-N pbc="F F F"
C       -1.01077706       1.79461716       1.01419133
N       -0.00123449       1.36226518       0.01300845
H       -0.00045350       0.25495301       0.00251074
C       -0.36037555       1.81751750      -1.35528734
C        1.36655041       1.80213794       0.39267730
H       -1.98426674       1.41131314       0.72409338
H       -1.04353472       2.88055215       1.05715331
H       -0.73668548       1.39898382       1.98739062
H       -1.34300034       1.43257309      -1.61030634
H        0.37490510       1.43939348      -2.05895304
H       -0.37350300       2.90419264      -1.38902136
H        1.60563849       1.40761980       1.37550589
H        1.41011714       2.88832636       0.41433339
H        2.07590526       1.42291369      -0.33655148
H        1.03575069      -2.73215389      -1.05518699
H        0.72574658      -1.26030862      -1.98604517
H        1.97701194      -1.26990913      -0.73146550
H        1.34816742      -1.29420402       1.60239021
H        0.37721890      -2.75638997       1.38283465
H       -0.36398793      -1.29941813       2.05869622
H       -1.40488830      -2.74124078      -0.40646735
H       -2.07086706      -1.28610107       0.34717570
C        0.99010596      -1.64061636      -1.00131680
N        0.00090500      -1.18996550      -0.01130305
C        0.36067258      -1.66382039       1.33322810
C       -1.34647238      -1.64932205      -0.37913720
H       -1.61001915      -1.26793958      -1.36367525
27
Properties=species:S:1:pos:R:3 charge=1 charge_a=1 charge_b=0 selection_a=1-14 selection_b=15-27 scaling=0.95 benchmark_Eint=-26.721 benchmark_unit=kcal/mol group=NHk-N pbc="F F F"
C       -1.01077706       1.79461716       1.01419133
N       -0.00123449       1.36226518       0.01300845
H       -0.00045350       0.25495301       0.00251074
C       -0.36037555       1.81751750      -1.35528734
C        1.36655041       1.80213794       0.39267730
H       -1.98426674       1.41131314       0.72409338
H       -1.04353472       2.88055215       1.05715331
H       -0.73668548       1.39898382       1.98739062
H       -1.34300034       1.43257309      -1.61030634
H        0.37490510       1.43939348      -2.05895304
H       -0.37350300       2.90419264      -1.38902136
H        1.60563849       1.40761980       1.37550589
H        1.41011714       2.88832636       0.41433339
H        2.07590526       1.42291369      -0.33655148
H        1.03582616      -2.81242715      -1.05595442
H        0.72582205      -1.34058187      -1.98681260
H        1.97708741      -1.35018238      -0.73223293
H        1.34824289      -1.37447727       1.60162278
H        0.37729437      -2.83666322       1.38206722
H       -0.36391246      -1.37969138       2.05792879
H       -1.40481283      -2.82151403      -0.40723479
H       -2.07079158      -1.36637432       0.34640826
C        0.99018143      -1.72088961      -1.00208424
N        0.00098047      -1.27023876      -0.01207048
C        0.36074806      -1.74409364       1.33246066
C       -1.34639691      -1.72959530      -0.37990463
H       -1.60994368      -1.34821284      -1.36444268
27
Properties=species:S:1:pos:R:3 charge=1 charge_a=1 charge_b=0 selection_a=1-14 selection_b=15-27 scaling=1.0 benchmark_Eint=-27.098 benchmark_unit=kcal/mol group=NHk-N pbc="F F F"
C       -1.01077706       1.79461716       1.01419133
N       -0.00123449       1.36226518       0.01300845
H       -0.00045350       0.25495301       0.00251074
C       -0.36037555       1.81751750      -1.35528734
C        1.36655041       1.80213794       0.39267730
H       -1.98426674       1.41131314       0.72409338
H       -1.04353472       2.88055215       1.05715331
H       -0.73668548       1.39898382       1.98739062
H       -1.34300034       1.43257309      -1.61030634
H        0.37490510       1.43939348      -2.05895304
H       -0.37350300       2.90419264      -1.38902136
H        1.60563849       1.40761980       1.37550589
H        1.41011714       2.88832636       0.41433339
H        2.07590526       1.42291369      -0.33655148
H        1.03590164      -2.89270040      -1.05672185
H        0.72589752      -1.42085512      -1.98758003
H        1.97716289      -1.43045563      -0.73300036
H        1.34831836      -1.45475052       1.60085534
H        0.37736984      -2.91693647       1.38129979
H       -0.36383698      -1.45996463       2.05716136
H       -1.40473735      -2.90178728      -0.40800222
H       -2.07071611      -1.44664758       0.34564083
C        0.99025690      -1.80116286      -1.00285167
N        0.00105595      -1.35051201      -0.01283792
C        0.36082353      -1.82436689       1.33169323
C       -1.34632143      -1.80986856      -0.38067206
H       -1.60986820      -1.42848609      -1.36521011
27
Properties=species:S:1:pos:R:3 charge=1 charge_a=1 charge_b=0 selection_a=1-14 selection_b=15-27 scaling=1.05 benchmark_Eint=-26.871 benchmark_unit=kcal/mol group=NHk-N pbc="F F F"
C       -1.01077706       1.79461716       1.01419133
N       -0.00123449       1.36226518       0.01300845
H       -0.00045350       0.25495301       0.00251074
C       -0.36037555       1.81751750      -1.35528734
C        1.36655041       1.80213794       0.39267730
H       -1.98426674       1.41131314       0.72409338
H       -1.04353472       2.88055215       1.05715331
H       -0.73668548       1.39898382       1.98739062
H       -1.34300034       1.43257309      -1.61030634
H        0.37490510       1.43939348      -2.05895304
H       -0.37350300       2.90419264      -1.38902136
H        1.60563849       1.40761980       1.37550589
H        1.41011714       2.88832636       0.41433339
H        2.07590526       1.42291369      -0.33655148
H        1.03597711      -2.97297365      -1.05748929
H        0.72597300      -1.50112837      -1.98834746
H        1.97723836      -1.51072888      -0.73376779
H        1.34839383      -1.53502377       1.60008791
H        0.37744532      -2.99720972       1.38053235
H       -0.36376151      -1.54023788       2.05639393
H       -1.40466188      -2.98206053      -0.40876965
H       -2.07064064      -1.52692083       0.34487340
C        0.99033237      -1.88143611      -1.00361910
N        0.00113142      -1.43078526      -0.01360535
C        0.36089900      -1.90464014       1.33092580
C       -1.34624596      -1.89014181      -0.38143950
H       -1.60979273      -1.50875934      -1.36597754
27
Properties=species:S:1:pos:R:3 charge=1 charge_a=1 charge_b=0 selection_a=1-14 selection_b=15-27 scaling=1.1 benchmark_Eint=-26.231 benchmark_unit=kcal/mol group=NHk-N pbc="F F F"
C       -1.01077706       1.79461716       1.01419133
N       -0.00123449       1.36226518       0.01300845
H       -0.00045350       0.25495301       0.00251074
C       -0.36037555       1.81751750      -1.35528734
C        1.36655041       1.80213794       0.39267730
H       -1.98426674       1.41131314       0.72409338
H       -1.04353472       2.88055215       1.05715331
H       -0.73668548       1.39898382       1.98739062
H       -1.34300034       1.43257309      -1.61030634
H        0.37490510       1.43939348      -2.05895304
H       -0.37350300       2.90419264      -1.38902136
H        1.60563849       1.40761980       1.37550589
H        1.41011714       2.88832636       0.41433339
H        2.07590526       1.42291369      -0.33655148
H        1.03605258      -3.05324690      -1.05825672
H        0.72604847      -1.58140162      -1.98911490
H        1.97731383      -1.59100213      -0.73453523
H        1.34846931      -1.61529702       1.59932048
H        0.37752079      -3.07748297       1.37976492
H       -0.36368604      -1.62051113       2.05562649
H       -1.40458641      -3.06233378      -0.40953708
H       -2.07056517      -1.60719408       0.34410597
C        0.99040785      -1.96170936      -1.00438653
N        0.00120689      -1.51105851      -0.01437278
C        0.36097447      -1.98491339       1.33015837
C       -1.34617049      -1.97041506      -0.38220693
H       -1.60971726      -1.58903259      -1.36674498
27
Properties=species:S:1:pos:R:3 charge=1 charge_a=1 charge_b=0 selection_a=1-14 selection_b=15-27 scaling=1.25 benchmark_Eint=-23.026 benchmark_unit=kcal/mol group=NHk-N pbc="F F F"
C       -1.01077706       1.79461716       1.01419133
N       -0.00123449       1.36226518       0.01300845
H       -0.00045350       0.25495301       0.00251074
C       -0.36037555       1.81751750      -1.35528734
C        1.36655041       1.80213794       0.39267730
H       -1.98426674       1.41131314       0.72409338
H       -1.04353472       2.88055215       1.05715331
H       -0.73668548       1.39898382       1.98739062
H       -1.34300034       1.43257309      -1.61030634
H        0.37490510       1.43939348      -2.05895304
H       -0.37350300       2.90419264      -1.38902136
H        1.60563849       1.40761980       1.37550589
H        1.41011714       2.88832636       0.41433339
H        2.07590526       1.42291369      -0.33655148
H        1.03627900      -3.29406665      -1.06055902
H        0.72627489      -1.82222137      -1.99141719
H        1.97754025      -1.83182189      -0.73683752
H        1.34869572      -1.85611677       1.59701818
H        0.37774721      -3.31830272       1.37746262
H       -0.36345962      -1.86133088       2.05332420
H       -1.40435999      -3.30315353      -0.41183938
H       -2.07033875      -1.84801383       0.34180367
C        0.99063426      -2.20252912      -1.00668883
N        0.00143331      -1.75187826      -0.01667508
C        0.36120089      -2.22573314       1.32785607
C       -1.34594407      -2.21123481      -0.38450923
H       -1.60949084      -1.82985234      -1.36904727
27
Properties=species:S:1:pos:R:3 charge=1 charge_a=1 charge_b=0 selection_a=1-14 selection_b=15-27 scaling=1.5 benchmark_Eint=-16.965 benchmark_unit=kcal/mol group=NHk-N pbc="F F F"
C       -1.01077706       1.79461716       1.01419133
N       -0.00123449       1.36226518       0.01300845
H       -0.00045350       0.25495301       0.00251074
C       -0.36037555       1.81751750      -1.35528734
C        1.36655041       1.80213794       0.39267730
H       -1.98426674       1.41131314       0.72409338
H       -1.04353472       2.88055215       1.05715331
H       -0.73668548       1.39898382       1.98739062
H       -1.34300034       1.43257309      -1.61030634
H        0.37490510       1.43939348      -2.05895304
H       -0.37350300       2.90419264      -1.38902136
H        1.60563849       1.40761980       1.37550589
H        1.41011714       2.88832636       0.41433339
H        2.07590526       1.42291369      -0.33655148
H        1.03665636      -3.69543290      -1.06439618
H        0.72665225      -2.22358763      -1.99525436
H        1.97791761      -2.23318814      -0.74067469
H        1.34907309      -2.25748303       1.59318102
H        0.37812457      -3.71966898       1.37362546
H       -0.36308226      -2.26269714       2.04948703
H       -1.40398263      -3.70451979      -0.41567655
H       -2.06996139      -2.24938008       0.33796651
C        0.99101163      -2.60389537      -1.01052599
N        0.00181067      -2.15324452      -0.02051224
C        0.36157825      -2.62709940       1.32401891
C       -1.34556671      -2.61260106      -0.38834639
H       -1.60911348      -2.23121860      -1.37288444
27
Properties=species:S:1:pos:R:3 charge=1 charge_a=1 charge_b=0 selection_a=1-14 selection_b=15-27 scaling=2.0 benchmark_Eint=-8.84 benchmark_unit=kcal/mol group=NHk-N pbc="F F F"
C       -1.01077706       1.79461716       1.01419133
N       -0.00123449       1.36226518       0.01300845
H       -0.00045350       0.25495301       0.00251074
C       -0.36037555       1.81751750      -1.35528734
C        1.36655041       1.80213794       0.39267730
H       -1.98426674       1.41131314       0.72409338
H       -1.04353472       2.88055215       1.05715331
H       -0.73668548       1.39898382       1.98739062
H       -1.34300034       1.43257309      -1.61030634
H        0.37490510       1.43939348      -2.05895304
H       -0.37350300       2.90419264      -1.38902136
H        1.60563849       1.40761980       1.37550589
H        1.41011714       2.88832636       0.41433339
H        2.07590526       1.42291369      -0.33655148
H        1.03741109      -4.49816541      -1.07207051
H        0.72740697      -3.02632013      -2.00292868
H        1.97867234      -3.03592065      -0.74834901
H        1.34982781      -3.06021553       1.58550669
H        0.37887930      -4.52240149       1.36595114
H       -0.36232753      -3.06542965       2.04181271
H       -1.40322790      -4.50725229      -0.42335087
H       -2.06920666      -3.05211259       0.33029218
C        0.99176635      -3.40662788      -1.01820032
N        0.00256540      -2.95597702      -0.02818657
C        0.36233298      -3.42983191       1.31634458
C       -1.34481198      -3.41533357      -0.39602072
H       -1.60835875      -3.03395110      -1.38055876
17
Properties=species:S:1:pos:R:3 charge=1 charge_a=1 charge_b=0 selection_a=1-10 selection_b=11-17 scaling=0.8 benchmark_Eint=-17.449 benchmark_unit=kcal/mol group=NHk-N pbc="F F F"
N       -2.13281230       0.44249113      -0.19975359
C       -2.40259616      -0.80375598       0.16987363
N       -1.39622680      -1.62063596       0.45701858
N       -3.66628218      -1.22815630       0.25393036
H       -1.16290278       0.73108972      -0.26180269
H       -2.86110670       1.09131113      -0.43428422
H       -0.44834762      -1.27039878       0.37502327
H       -1.55314625      -2.57148081       0.73568180
H       -4.43615756      -0.61984332       0.04215974
H       -3.88372003      -2.16764652       0.53263870
H        3.09872341       2.32900393       0.71058077
H        3.67752607       0.70711125       1.22685318
H        4.50079604       1.57308497      -0.10584570
C        3.55992535       1.39778613       0.39826955
O        2.70606517       0.76634889      -0.62817049
C        1.52848972       0.44863007      -0.30514132
N        0.44086638       0.13626578      -0.06617889
17
Properties=species:S:1:pos:R:3 charge=1 charge_a=1 charge_b=0 selection_a=1-10 selection_b=11-17 scaling=0.85 benchmark_Eint=-20.874 benchmark_unit=kcal/mol group=NHk-N pbc="F F F"
N       -2.13281230       0.44249113      -0.19975359
C       -2.40259616      -0.80375598       0.16987363
N       -1.39622680      -1.62063596       0.45701858
N       -3.66628218      -1.22815630       0.25393036
H       -1.16290278       0.73108972      -0.26180269
H       -2.86110670       1.09131113      -0.43428422
H       -0.44834762      -1.27039878       0.37502327
H       -1.55314625      -2.57148081       0.73568180
H       -4.43615756      -0.61984332       0.04215974
H       -3.88372003      -2.16764652       0.53263870
H        3.19589019       2.36064632       0.70100908
H        3.77469286       0.73875364       1.21728149
H        4.59796282       1.60472736      -0.11541739
C        3.65709214       1.42942852       0.38869786
O        2.80323195       0.79799128      -0.63774217
C        1.62565650       0.48027246      -0.31471301
N        0.53803317       0.16790817      -0.07575058
17
Properties=species:S:1:pos:R:3 charge=1 charge_a=1 charge_b=0 selection_a=1-10 selection_b=11-17 scaling=0.9 benchmark_Eint=-22.935 benchmark_unit=kcal/mol group=NHk-N pbc="F F F"
N       -2.13281230       0.44249113      -0.19975359
C       -2.40259616      -0.80375598       0.16987363
N       -1.39622680      -1.62063596       0.45701858
N       -3.66628218      -1.22815630       0.25393036
H       -1.16290278       0.73108972      -0.26180269
H       -2.86110670       1.09131113      -0.43428422
H       -0.44834762      -1.27039878       0.37502327
H       -1.55314625      -2.57148081       0.73568180
H       -4.43615756      -0.61984332       0.04215974
H       -3.88372003      -2.16764652       0.53263870
H        3.29305697       2.39228871       0.69143739
H        3.87185964       0.77039603       1.20770980
H        4.69512960       1.63636975      -0.12498908
C        3.75425892       1.46107091       0.37912617
O        2.90039873       0.82963367      -0.64731386
C        1.72282329       0.51191485      -0.32428470
N        0.63519995       0.19955056      -0.08532227
17
Properties=species:S:1:pos:R:3 charge=1 charge_a=1 charge_b=0 selection_a=1-10 selection_b=11-17 scaling=0.95 benchmark_Eint=-23.986 benchmark_unit=kcal/mol group=NHk-N pbc="F F F"
N       -2.13281230       0.44249113      -0.19975359
C       -2.40259616      -0.80375598       0.16987363
N       -1.39622680      -1.62063596       0.45701858
N       -3.66628218      -1.22815630       0.25393036
H       -1.16290278       0.73108972      -0.26180269
H       -2.86110670       1.09131113      -0.43428422
H       -0.44834762      -1.27039878       0.37502327
H       -1.55314625      -2.57148081       0.73568180
H       -4.43615756      -0.61984332       0.04215974
H       -3.88372003      -2.16764652       0.53263870
H        3.39022376       2.42393110       0.68186570
H        3.96902642       0.80203841       1.19813811
H        4.79229639       1.66801214      -0.13456077
C        3.85142570       1.49271330       0.36955448
O        2.99756551       0.86127606      -0.65688555
C        1.81999007       0.54355723      -0.33385639
N        0.73236673       0.23119295      -0.09489396
17
Properties=species:S:1:pos:R:3 charge=1 charge_a=1 charge_b=0 selection_a=1-10 selection_b=11-17 scaling=1.0 benchmark_Eint=-24.301 benchmark_unit=kcal/mol group=NHk-N pbc="F F F"
N       -2.13281230       0.44249113      -0.19975359
C       -2.40259616      -0.80375598       0.16987363
N       -1.39622680      -1.62063596       0.45701858
N       -3.66628218      -1.22815630       0.25393036
H       -1.16290278       0.73108972      -0.26180269
H       -2.86110670       1.09131113      -0.43428422
H       -0.44834762      -1.27039878       0.37502327
H       -1.55314625      -2.57148081       0.73568180
H       -4.43615756      -0.61984332       0.04215974
H       -3.88372003      -2.16764652       0.53263870
H        3.48739054       2.45557348       0.67229401
H        4.06619321       0.83368080       1.18856643
H        4.88946317       1.69965453      -0.14413246
C        3.94859248       1.52435569       0.35998279
O        3.09473230       0.89291845      -0.66645724
C        1.91715685       0.57519962      -0.34342808
N        0.82953352       0.26283534      -0.10446564
17
Properties=species:S:1:pos:R:3 charge=1 charge_a=1 charge_b=0 selection_a=1-10 selection_b=11-17 scaling=1.05 benchmark_Eint=-24.096 benchmark_unit=kcal/mol group=NHk-N pbc="F F F"
N       -2.13281230       0.44249113      -0.19975359
C       -2.40259616      -0.80375598       0.16987363
N       -1.39622680      -1.62063596       0.45701858
N       -3.66628218      -1.22815630       0.25393036
H       -1.16290278       0.73108972      -0.26180269
H       -2.86110670       1.09131113      -0.43428422
H       -0.44834762      -1.27039878       0.37502327
H       -1.55314625      -2.57148081       0.73568180
H       -4.43615756      -0.61984332       0.04215974
H       -3.88372003      -2.16764652       0.53263870
H        3.58455732       2.48721587       0.66272232
H        4.16335999       0.86532319       1.17899474
H        4.98662995       1.73129692      -0.15370415
C        4.04575927       1.55599807       0.35041111
O        3.19189908       0.92456083      -0.67602893
C        2.01432363       0.60684201      -0.35299977
N        0.92670030       0.29447773      -0.11403733
17
Properties=species:S:1:pos:R:3 charge=1 charge_a=1 charge_b=0 selection_a=1-10 selection_b=11-17 scaling=1.1 benchmark_Eint=-23.535 benchmark_unit=kcal/mol group=NHk-N pbc="F F F"
N       -2.13281230       0.44249113      -0.19975359
C       -2.40259616      -0.80375598       0.16987363
N       -1.39622680      -1.62063596       0.45701858
N       -3.66628218      -1.22815630       0.25393036
H       -1.16290278       0.73108972      -0.26180269
H       -2.86110670       1.09131113      -0.43428422
H       -0.44834762      -1.27039878       0.37502327
H       -1.55314625      -2.57148081       0.73568180
H       -4.43615756      -0.61984332       0.04215974
H       -3.88372003      -2.16764652       0.53263870
H        3.68172410       2.51885826       0.65315063
H        4.26052677       0.89696558       1.16942305
H        5.08379673       1.76293931      -0.16327584
C        4.14292605       1.58764046       0.34083942
O        3.28906586       0.95620322      -0.68560062
C        2.11149042       0.63848440      -0.36257146
N        1.02386708       0.32612011      -0.12360902
17
Properties=species:S:1:pos:R:3 charge=1 charge_a=1 charge_b=0 selection_a=1-10 selection_b=11-17 scaling=1.25 benchmark_Eint=-20.803 benchmark_unit=kcal/mol group=NHk-N pbc="F F F"
N       -2.13281230       0.44249113      -0.19975359
C       -2.40259616      -0.80375598       0.16987363
N       -1.39622680      -1.62063596       0.45701858
N       -3.66628218      -1.22815630       0.25393036
H       -1.16290278       0.73108972      -0.26180269
H       -2.86110670       1.09131113      -0.43428422
H       -0.44834762      -1.27039878       0.37502327
H       -1.55314625      -2.57148081       0.73568180
H       -4.43615756      -0.61984332       0.04215974
H       -3.88372003      -2.16764652       0.53263870
H        3.97322445       2.61378543       0.62443557
H        4.55202712       0.99189275       1.14070798
H        5.37529708       1.85786647      -0.19199090
C        4.43442640       1.68256763       0.31212435
O        3.58056621       1.05113039      -0.71431568
C        2.40299077       0.73341157      -0.39128652
N        1.31536743       0.42104728      -0.15232409
17
Properties=species:S:1:pos:R:3 charge=1 charge_a=1 charge_b=0 selection_a=1-10 selection_b=11-17 scaling=1.5 benchmark_Eint=-15.901 benchmark_unit=kcal/mol group=NHk-N pbc="F F F"
N       -2.13281230       0.44249113      -0.19975359
C       -2.40259616      -0.80375598       0.16987363
N       -1.39622680      -1.62063596       0.45701858
N       -3.66628218      -1.22815630       0.25393036
H       -1.16290278       0.73108972      -0.26180269
H       -2.86110670       1.09131113      -0.43428422
H       -0.44834762      -1.27039878       0.37502327
H       -1.55314625      -2.57148081       0.73568180
H       -4.43615756      -0.61984332       0.04215974
H       -3.88372003      -2.16764652       0.53263870
H        4.45905837       2.77199737       0.57657712
H        5.03786104       1.15010469       1.09284954
H        5.86113100       2.01607842      -0.23984935
C        4.92026032       1.84077957       0.26426591
O        4.06640013       1.20934233      -0.76217413
C        2.88882468       0.89162351      -0.43914497
N        1.80120135       0.57925922      -0.20018253
17
Properties=species:S:1:pos:R:3 charge=1 charge_a=1 charge_b=0 selection_a=1-10 selection_b=11-17 scaling=2.0 benchmark_Eint=-9.69 benchmark_unit=kcal/mol group=NHk-N pbc="F F F"
N       -2.13281230       0.44249113      -0.19975359
C       -2.40259616      -0.80375598       0.16987363
N       -1.39622680      -1.62063596       0.45701858
N       -3.66628218      -1.22815630       0.25393036
H       -1.16290278       0.73108972      -0.26180269
H       -2.86110670       1.09131113      -0.43428422
H       -0.44834762      -1.27039878       0.37502327
H       -1.55314625      -2.57148081       0.73568180
H       -4.43615756      -0.61984332       0.04215974
H       -3.88372003      -2.16764652       0.53263870
H        5.43072620       3.08842126       0.48086024
H        6.00952887       1.46652858       0.99713265
H        6.83279883       2.33250230      -0.33556623
C        5.89192815       2.15720346       0.16854902
O        5.03806796       1.52576622      -0.85789102
C        3.86049251       1.20804740      -0.53486185
N        2.77286918       0.89568311      -0.29589942
24
Properties=species:S:1:pos:R:3 charge=1 charge_a=1 charge_b=0 selection_a=1-10 selection_b=11-24 scaling=0.8 benchmark_Eint=-18.723 benchmark_unit=kcal/mol group=NHk-N pbc="F F F"
N       -1.83563219       0.28106289       0.66027020
C       -2.21672319      -0.44602763      -0.38326023
N       -1.26975370      -1.00231848      -1.12957411
N       -3.50969141      -0.60815296      -0.67599273
H       -0.82896104       0.34756338       0.83004274
H       -2.49705427       0.72040461       1.27317734
H       -0.30277006      -0.84648280      -0.83523620
H       -1.48570062      -1.57409165      -1.92492613
H       -4.22786193      -0.18646721      -0.11549847
H       -3.80072320      -1.15443515      -1.46632091
H        3.45174953      -0.17300280       0.10239188
H        3.46832623       1.58840691      -0.04272897
H        3.01717652       0.81413970       1.48075176
H        1.20254926       2.76844194      -0.49498173
H        1.92834414      -1.83670534       0.80794637
H        1.49030445      -0.84139246       2.19559571
H        0.29310189      -1.91125990       1.46517758
H        1.63613603       1.78226077      -1.86991366
H       -0.01009220       1.68914507      -1.21273901
C        1.50247437       0.70858055      -0.03243706
N        0.67185402      -0.18709156       0.34805466
C        1.12481504      -1.24496138       1.24977278
C        1.04049660       1.79230000      -0.95544206
C        2.94160283       0.74608653       0.39450441
24
Properties=species:S:1:pos:R:3 charge=1 charge_a=1 charge_b=0 selection_a=1-10 selection_b=11-24 scaling=0.85 benchmark_Eint=-22.694 benchmark_unit=kcal/mol group=NHk-N pbc="F F F"
N       -1.83563219       0.28106289       0.66027020
C       -2.21672319      -0.44602763      -0.38326023
N       -1.26975370      -1.00231848      -1.12957411
N       -3.50969141      -0.60815296      -0.67599273
H       -0.82896104       0.34756338       0.83004274
H       -2.49705427       0.72040461       1.27317734
H       -0.30277006      -0.84648280      -0.83523620
H       -1.48570062      -1.57409165      -1.92492613
H       -4.22786193      -0.18646721      -0.11549847
H       -3.80072320      -1.15443515      -1.46632091
H        3.54725204      -0.16819047       0.12944816
H        3.56382874       1.59321924      -0.01567269
H        3.11267904       0.81895203       1.50780804
H        1.29805177       2.77325427      -0.46792545
H        2.02384665      -1.83189301       0.83500265
H        1.58580696      -0.83658013       2.22265199
H        0.38860439      -1.90644757       1.49223386
H        1.73163854       1.78707310      -1.84285738
H        0.08541031       1.69395740      -1.18568273
C        1.59797688       0.71339288      -0.00538078
N        0.76735653      -0.18227923       0.37511094
C        1.22031755      -1.24014905       1.27682906
C        1.13599911       1.79711233      -0.92838578
C        3.03710534       0.75089886       0.42156069
24
Properties=species:S:1:pos:R:3 charge=1 charge_a=1 charge_b=0 selection_a=1-10 selection_b=11-24 scaling=0.9 benchmark_Eint=-25.117 benchmark_unit=kcal/mol group=NHk-N pbc="F F F"
N       -1.83563219       0.28106289       0.66027020
C       -2.21672319      -0.44602763      -0.38326023
N       -1.26975370      -1.00231848      -1.12957411
N       -3.50969141      -0.60815296      -0.67599273
H       -0.82896104       0.34756338       0.83004274
H       -2.49705427       0.72040461       1.27317734
H       -0.30277006      -0.84648280      -0.83523620
H       -1.48570062      -1.57409165      -1.92492613
H       -4.22786193      -0.18646721      -0.11549847
H       -3.80072320      -1.15443515      -1.46632091
H        3.64275455      -0.16337814       0.15650444
H        3.65933125       1.59803157       0.01138359
H        3.20818154       0.82376436       1.53486432
H        1.39355428       2.77806660      -0.44086918
H        2.11934916      -1.82708069       0.86205893
H        1.68130947      -0.83176781       2.24970827
H        0.48410690      -1.90163524       1.51929015
H        1.82714105       1.79188543      -1.81580110
H        0.18091282       1.69876973      -1.15862645
C        1.69347939       0.71820521       0.02167550
N        0.86285904      -0.17746690       0.40216722
C        1.31582006      -1.23533672       1.30388534
C        1.23150162       1.80192466      -0.90132950
C        3.13260785       0.75571119       0.44861697
24
Properties=species:S:1:pos:R:3 charge=1 charge_a=1 charge_b=0 selection_a=1-10 selection_b=11-24 scaling=0.95 benchmark_Eint=-26.381 benchmark_unit=kcal/mol group=NHk-N pbc="F F F"
N       -1.83563219       0.28106289       0.66027020
C       -2.21672319      -0.44602763      -0.38326023
N       -1.26975370      -1.00231848      -1.12957411
N       -3.50969141      -0.60815296      -0.67599273
H       -0.82896104       0.34756338       0.83004274
H       -2.49705427       0.72040461       1.27317734
H       -0.30277006      -0.84648280      -0.83523620
H       -1.48570062      -1.57409165      -1.92492613
H       -4.22786193      -0.18646721      -0.11549847
H       -3.80072320      -1.15443515      -1.46632091
H        3.73825706      -0.15856581       0.18356072
H        3.75483376       1.60284390       0.03843987
H        3.30368405       0.82857669       1.56192060
H        1.48905679       2.78287893      -0.41381289
H        2.21485166      -1.82226835       0.88911521
H        1.77681198      -0.82695547       2.27676455
H        0.57960941      -1.89682291       1.54634643
H        1.92264356       1.79669776      -1.78874482
H        0.27641533       1.70358206      -1.13157017
C        1.78898190       0.72301754       0.04873178
N        0.95836155      -0.17265457       0.42922350
C        1.41132257      -1.23052439       1.33094162
C        1.32700413       1.80673699      -0.87427322
C        3.22811036       0.76052352       0.47567325
24
Properties=species:S:1:pos:R:3 charge=1 charge_a=1 charge_b=0 selection_a=1-10 selection_b=11-24 scaling=1.0 benchmark_Eint=-26.79 benchmark_unit=kcal/mol group=NHk-N pbc="F F F"
N       -1.83563219       0.28106289       0.66027020
C       -2.21672319      -0.44602763      -0.38326023
N       -1.26975370      -1.00231848      -1.12957411
N       -3.50969141      -0.60815296      -0.67599273
H       -0.82896104       0.34756338       0.83004274
H       -2.49705427       0.72040461       1.27317734
H       -0.30277006      -0.84648280      -0.83523620
H       -1.48570062      -1.57409165      -1.92492613
H       -4.22786193      -0.18646721      -0.11549847
H       -3.80072320      -1.15443515      -1.46632091
H        3.83375957      -0.15375348       0.21061700
H        3.85033627       1.60765623       0.06549615
H        3.39918656       0.83338902       1.58897688
H        1.58455930       2.78769126      -0.38675661
H        2.31035417      -1.81745602       0.91617149
H        1.87231449      -0.82214314       2.30382083
H        0.67511192      -1.89201058       1.57340271
H        2.01814607       1.80151009      -1.76168854
H        0.37191784       1.70839440      -1.10451389
C        1.88448441       0.72782987       0.07578806
N        1.05386406      -0.16784224       0.45627978
C        1.50682508      -1.22571206       1.35799790
C        1.42250664       1.81154932      -0.84721694
C        3.32361287       0.76533585       0.50272953
24
Properties=species:S:1:pos:R:3 charge=1 charge_a=1 charge_b=0 selection_a=1-10 selection_b=11-24 scaling=1.05 benchmark_Eint=-26.583 benchmark_unit=kcal/mol group=NHk-N pbc="F F F"
N       -1.83563219       0.28106289       0.66027020
C       -2.21672319      -0.44602763      -0.38326023
N       -1.26975370      -1.00231848      -1.12957411
N       -3.50969141      -0.60815296      -0.67599273
H       -0.82896104       0.34756338       0.83004274
H       -2.49705427       0.72040461       1.27317734
H       -0.30277006      -0.84648280      -0.83523620
H       -1.48570062      -1.57409165      -1.92492613
H       -4.22786193      -0.18646721      -0.11549847
H       -3.80072320      -1.15443515      -1.46632091
H        3.92926208      -0.14894115       0.23767328
H        3.94583878       1.61246856       0.09255243
H        3.49468907       0.83820135       1.61603316
H        1.68006181       2.79250359      -0.35970033
H        2.40585668      -1.81264369       0.94322777
H        1.96781700      -0.81733081       2.33087711
H        0.77061443      -1.88719825       1.60045899
H        2.11364858       1.80632242      -1.73463226
H        0.46742035       1.71320673      -1.07745760
C        1.97998692       0.73264220       0.10284434
N        1.14936657      -0.16302991       0.48333606
C        1.60232758      -1.22089973       1.38505418
C        1.51800915       1.81636165      -0.82016066
C        3.41911538       0.77014818       0.52978581
24
Properties=species:S:1:pos:R:3 charge=1 charge_a=1 charge_b=0 selection_a=1-10 selection_b=11-24 scaling=1.1 benchmark_Eint=-25.945 benchmark_unit=kcal/mol group=NHk-N pbc="F F F"
N       -1.83563219       0.28106289       0.66027020
C       -2.21672319      -0.44602763      -0.38326023
N       -1.26975370      -1.00231848      -1.12957411
N       -3.50969141      -0.60815296      -0.67599273
H       -0.82896104       0.34756338       0.83004274
H       -2.49705427       0.72040461       1.27317734
H       -0.30277006      -0.84648280      -0.83523620
H       -1.48570062      -1.57409165      -1.92492613
H       -4.22786193      -0.18646721      -0.11549847
H       -3.80072320      -1.15443515      -1.46632091
H        4.02476459      -0.14412882       0.26472956
H        4.04134129       1.61728089       0.11960871
H        3.59019158       0.84301368       1.64308944
H        1.77556432       2.79731592      -0.33264405
H        2.50135919      -1.80783136       0.97028405
H        2.06331951      -0.81251848       2.35793339
H        0.86611694      -1.88238592       1.62751527
H        2.20915109       1.81113475      -1.70757598
H        0.56292286       1.71801906      -1.05040132
C        2.07548943       0.73745453       0.12990062
N        1.24486908      -0.15821757       0.51039234
C        1.69783009      -1.21608740       1.41211046
C        1.61351166       1.82117398      -0.79310438
C        3.51461789       0.77496051       0.55684209
24
Properties=species:S:1:pos:R:3 charge=1 charge_a=1 charge_b=0 selection_a=1-10 selection_b=11-24 scaling=1.25 benchmark_Eint=-22.687 benchmark_unit=kcal/mol group=NHk-N pbc="F F F"
N       -1.83563219       0.28106289       0.66027020
C       -2.21672319      -0.44602763      -0.38326023
N       -1.26975370      -1.00231848      -1.12957411
N       -3.50969141      -0.60815296      -0.67599273
H       -0.82896104       0.34756338       0.83004274
H       -2.49705427       0.72040461       1.27317734
H       -0.30277006      -0.84648280      -0.83523620
H       -1.48570062      -1.57409165      -1.92492613
H       -4.22786193      -0.18646721      -0.11549847
H       -3.80072320      -1.15443515      -1.46632091
H        4.31127212      -0.12969183       0.34589840
H        4.32784882       1.63171788       0.20077755
H        3.87669911       0.85745067       1.72425828
H        2.06207184       2.81175291      -0.25147521
H        2.78786672      -1.79339437       1.05145289
H        2.34982704      -0.79808149       2.43910223
H        1.15262447      -1.86794893       1.70868411
H        2.49565861       1.82557174      -1.62640714
H        0.84943039       1.73245605      -0.96923248
C        2.36199696       0.75189152       0.21106946
N        1.53137661      -0.14378058       0.59156118
C        1.98433762      -1.20165041       1.49327930
C        1.90001918       1.83561097      -0.71193554
C        3.80112542       0.78939751       0.63801093
24
Properties=species:S:1:pos:R:3 charge=1 charge_a=1 charge_b=0 selection_a=1-10 selection_b=11-24 scaling=1.5 benchmark_Eint=-16.58 benchmark_unit=kcal/mol group=NHk-N pbc="F F F"
N       -1.83563219       0.28106289       0.66027020
C       -2.21672319      -0.44602763      -0.38326023
N       -1.26975370      -1.00231848      -1.12957411
N       -3.50969141      -0.60815296      -0.67599273
H       -0.82896104       0.34756338       0.83004274
H       -2.49705427       0.72040461       1.27317734
H       -0.30277006      -0.84648280      -0.83523620
H       -1.48570062      -1.57409165      -1.92492613
H       -4.22786193      -0.18646721      -0.11549847
H       -3.80072320      -1.15443515      -1.46632091
H        4.78878466      -0.10563017       0.48117980
H        4.80536136       1.65577953       0.33605895
H        4.35421166       0.88151232       1.85953969
H        2.53958439       2.83581456      -0.11619381
H        3.26537927      -1.76933272       1.18673429
H        2.82733958      -0.77401984       2.57438363
H        1.63013702      -1.84388728       1.84396551
H        2.97317116       1.84963339      -1.49112574
H        1.32694293       1.75651770      -0.83395108
C        2.83950951       0.77595318       0.34635086
N        2.00888915      -0.11971893       0.72684258
C        2.46185017      -1.17758875       1.62856070
C        2.37753173       1.85967262      -0.57665414
C        4.27863796       0.81345916       0.77329233
24
Properties=species:S:1:pos:R:3 charge=1 charge_a=1 charge_b=0 selection_a=1-10 selection_b=11-24 scaling=2.0 benchmark_Eint=-8.724 benchmark_unit=kcal/mol group=NHk-N pbc="F F F"
N       -1.83563219       0.28106289       0.66027020
C       -2.21672319      -0.44602763      -0.38326023
N       -1.26975370      -1.00231848      -1.12957411
N       -3.50969141      -0.60815296      -0.67599273
H       -0.82896104       0.34756338       0.83004274
H       -2.49705427       0.72040461       1.27317734
H       -0.30277006      -0.84648280      -0.83523620
H       -1.48570062      -1.57409165      -1.92492613
H       -4.22786193      -0.18646721      -0.11549847
H       -3.80072320      -1.15443515      -1.46632091
H        5.74380976      -0.05750687       0.75174261
H        5.76038646       1.70390284       0.60662175
H        5.30923675       0.92963562       2.13010249
H        3.49460948       2.88393787       0.15436899
H        4.22040436      -1.72120942       1.45729710
H        3.78236468      -0.72589654       2.84494644
H        2.58516211      -1.79576397       2.11452831
H        3.92819626       1.89775670      -1.22056294
H        2.28196803       1.80464100      -0.56338828
C        3.79453460       0.82407648       0.61691366
N        2.96391425      -0.07159563       0.99740538
C        3.41687526      -1.12946545       1.89912351
C        3.33255683       1.90779593      -0.30609133
C        5.23366306       0.86158246       1.04385513
11
Properties=species:S:1:pos:R:3 charge=1 charge_a=1 charge_b=0 selection_a=1-5 selection_b=6-11 scaling=0.8 benchmark_Eint=-20.844 benchmark_unit=kcal/mol group=NHk-C pbc="F F F"
N        0.00000166       0.00000146       2.92104602
H        0.00000142       0.00000081       1.83594014
H        0.95843781       0.00000115       3.26746102
H       -0.47921584      -0.83002856       3.26746188
H       -0.47921598       0.83003128       3.26746187
H       -1.02733092      -0.00000003      -2.50015667
H        0.51366304       0.88969332      -2.50015761
H        0.51366311      -0.88969336      -2.50015816
C        0.00000040      -0.00000037       0.43099500
N       -0.00000034      -0.00000046      -0.72056313
C       -0.00000128      -0.00000017      -2.14547362
11
Properties=species:S:1:pos:R:3 charge=1 charge_a=1 charge_b=0 selection_a=1-5 selection_b=6-11 scaling=0.85 benchmark_Eint=-25.068 benchmark_unit=kcal/mol group=NHk-C pbc="F F F"
N        0.00000166       0.00000146       2.92104602
H        0.00000142       0.00000081       1.83594014
H        0.95843781       0.00000115       3.26746102
H       -0.47921584      -0.83002856       3.26746188
H       -0.47921598       0.83003128       3.26746187
H       -1.02733098      -0.00000010      -2.58796574
H        0.51366298       0.88969324      -2.58796668
H        0.51366304      -0.88969343      -2.58796723
C        0.00000034      -0.00000045       0.34318593
N       -0.00000041      -0.00000053      -0.80837220
C       -0.00000135      -0.00000024      -2.23328269
11
Properties=species:S:1:pos:R:3 charge=1 charge_a=1 charge_b=0 selection_a=1-5 selection_b=6-11 scaling=0.9 benchmark_Eint=-27.595 benchmark_unit=kcal/mol group=NHk-C pbc="F F F"
N        0.00000166       0.00000146       2.92104602
H        0.00000142       0.00000081       1.83594014
H        0.95843781       0.00000115       3.26746102
H       -0.47921584      -0.83002856       3.26746188
H       -0.47921598       0.83003128       3.26746187
H       -1.02733104      -0.00000018      -2.67577481
H        0.51366292       0.88969317      -2.67577576
H        0.51366298      -0.88969350      -2.67577630
C        0.00000027      -0.00000052       0.25537686
N       -0.00000047      -0.00000061      -0.89618127
C       -0.00000141      -0.00000032      -2.32109176
11
Properties=species:S:1:pos:R:3 charge=1 charge_a=1 charge_b=0 selection_a=1-5 selection_b=6-11 scaling=0.95 benchmark_Eint=-28.907 benchmark_unit=kcal/mol group=NHk-C pbc="F F F"
N        0.00000166       0.00000146       2.92104602
H        0.00000142       0.00000081       1.83594014
H        0.95843781       0.00000115       3.26746102
H       -0.47921584      -0.83002856       3.26746188
H       -0.47921598       0.83003128       3.26746187
H       -1.02733111      -0.00000025      -2.76358388
H        0.51366285       0.88969309      -2.76358483
H        0.51366292      -0.88969358      -2.76358538
C        0.00000021      -0.00000060       0.16756778
N       -0.00000053      -0.00000068      -0.98399034
C       -0.00000147      -0.00000039      -2.40890083
11
Properties=species:S:1:pos:R:3 charge=1 charge_a=1 charge_b=0 selection_a=1-5 selection_b=6-11 scaling=1.0 benchmark_Eint=-29.353 benchmark_unit=kcal/mol group=NHk-C pbc="F F F"
N        0.00000166       0.00000146       2.92104602
H        0.00000142       0.00000081       1.83594014
H        0.95843781       0.00000115       3.26746102
H       -0.47921584      -0.83002856       3.26746188
H       -0.47921598       0.83003128       3.26746187
H       -1.02733117      -0.00000033      -2.85139295
H        0.51366279       0.88969302      -2.85139390
H        0.51366285      -0.88969365      -2.85139445
C        0.00000014      -0.00000067       0.07975871
N       -0.00000060      -0.00000075      -1.07179941
C       -0.00000154      -0.00000046      -2.49670991
11
Properties=species:S:1:pos:R:3 charge=1 charge_a=1 charge_b=0 selection_a=1-5 selection_b=6-11 scaling=1.05 benchmark_Eint=-29.189 benchmark_unit=kcal/mol group=NHk-C pbc="F F F"
N        0.00000166       0.00000146       2.92104602
H        0.00000142       0.00000081       1.83594014
H        0.95843781       0.00000115       3.26746102
H       -0.47921584      -0.83002856       3.26746188
H       -0.47921598       0.83003128       3.26746187
H       -1.02733124      -0.00000040      -2.93920202
H        0.51366272       0.88969295      -2.93920297
H        0.51366279      -0.88969373      -2.93920352
C        0.00000008      -0.00000074      -0.00805036
N       -0.00000066      -0.00000083      -1.15960848
C       -0.00000160      -0.00000054      -2.58451898
11
Properties=species:S:1:pos:R:3 charge=1 charge_a=1 charge_b=0 selection_a=1-5 selection_b=6-11 scaling=1.1 benchmark_Eint=-28.605 benchmark_unit=kcal/mol group=NHk-C pbc="F F F"
N        0.00000166       0.00000146       2.92104602
H        0.00000142       0.00000081       1.83594014
H        0.95843781       0.00000115       3.26746102
H       -0.47921584      -0.83002856       3.26746188
H       -0.47921598       0.83003128       3.26746187
H       -1.02733130      -0.00000047      -3.02701110
H        0.51366266       0.88969287      -3.02701204
H        0.51366272      -0.88969380      -3.02701259
C        0.00000002      -0.00000082      -0.09585943
N       -0.00000072      -0.00000090      -1.24741755
C       -0.00000166      -0.00000061      -2.67232805
11
Properties=species:S:1:pos:R:3 charge=1 charge_a=1 charge_b=0 selection_a=1-5 selection_b=6-11 scaling=1.25 benchmark_Eint=-25.557 benchmark_unit=kcal/mol group=NHk-C pbc="F F F"
N        0.00000166       0.00000146       2.92104602
H        0.00000142       0.00000081       1.83594014
H        0.95843781       0.00000115       3.26746102
H       -0.47921584      -0.83002856       3.26746188
H       -0.47921598       0.83003128       3.26746187
H       -1.02733149      -0.00000069      -3.29043831
H        0.51366247       0.88969265      -3.29043926
H        0.51366253      -0.88969402      -3.29043981
C       -0.00000017      -0.00000104      -0.35928665
N       -0.00000092      -0.00000112      -1.51084477
C       -0.00000186      -0.00000083      -2.93575526
11
Properties=species:S:1:pos:R:3 charge=1 charge_a=1 charge_b=0 selection_a=1-5 selection_b=6-11 scaling=1.5 benchmark_Eint=-19.758 benchmark_unit=kcal/mol group=NHk-C pbc="F F F"
N        0.00000166       0.00000146       2.92104602
H        0.00000142       0.00000081       1.83594014
H        0.95843781       0.00000115       3.26746102
H       -0.47921584      -0.83002856       3.26746188
H       -0.47921598       0.83003128       3.26746187
H       -1.02733181      -0.00000106      -3.72948367
H        0.51366215       0.88969228      -3.72948461
H        0.51366222      -0.88969439      -3.72948516
C       -0.00000049      -0.00000141      -0.79833200
N       -0.00000123      -0.00000149      -1.94989013
C       -0.00000217      -0.00000120      -3.37480062
11
Properties=species:S:1:pos:R:3 charge=1 charge_a=1 charge_b=0 selection_a=1-5 selection_b=6-11 scaling=2.0 benchmark_Eint=-11.959 benchmark_unit=kcal/mol group=NHk-C pbc="F F F"
N        0.00000166       0.00000146       2.92104602
H        0.00000142       0.00000081       1.83594014
H        0.95843781       0.00000115       3.26746102
H       -0.47921584      -0.83002856       3.26746188
H       -0.47921598       0.83003128       3.26746187
H       -1.02733244      -0.00000180      -4.60757438
H        0.51366152       0.88969155      -4.60757533
H        0.51366158      -0.88969513      -4.60757588
C       -0.00000113      -0.00000214      -1.67642272
N       -0.00000187      -0.00000223      -2.82798084
C       -0.00000281      -0.00000194      -4.25289134
16
Properties=species:S:1:pos:R:3 charge=1 charge_a=1 charge_b=0 selection_a=1-10 selection_b=11-16 scaling=0.8 benchmark_Eint=-15.025 benchmark_unit=kcal/mol group=NHk-C pbc="F F F"
C       -2.77463081      -0.04294352      -1.26971013
C       -1.42662831      -0.02729430      -1.43234136
N       -0.86767540      -0.01199524      -0.17465902
H        0.15772860       0.00216535       0.03902518
C       -1.82972405      -0.01788546       0.73579021
N       -2.99855516      -0.03667702       0.09122635
H       -3.57501440      -0.05761742      -1.98432130
H       -0.82868078      -0.02580928      -2.32348980
H       -1.69574019      -0.00915006       1.80158067
H       -3.90179777      -0.04492687       0.53820503
H        4.59031335       0.93561016       0.32498129
H        4.32374583       0.09130016       1.86626959
H        4.60486379      -0.84131680       0.37940656
C        1.61827884       0.02231169       0.33389797
N        2.75345410       0.03783025       0.54038400
C        4.15418586       0.05702319       0.79321293
16
Properties=species:S:1:pos:R:3 charge=1 charge_a=1 charge_b=0 selection_a=1-10 selection_b=11-16 scaling=0.85 benchmark_Eint=-18.611 benchmark_unit=kcal/mol group=NHk-C pbc="F F F"
C       -2.77463081      -0.04294352      -1.26971013
C       -1.42662831      -0.02729430      -1.43234136
N       -0.86767540      -0.01199524      -0.17465902
H        0.15772860       0.00216535       0.03902518
C       -1.82972405      -0.01788546       0.73579021
N       -2.99855516      -0.03667702       0.09122635
H       -3.57501440      -0.05761742      -1.98432130
H       -0.82868078      -0.02580928      -2.32348980
H       -1.69574019      -0.00915006       1.80158067
H       -3.90179777      -0.04492687       0.53820503
H        4.68159774       0.93686931       0.34341084
H        4.41503022       0.09255930       1.88469914
H        4.69614818      -0.84005765       0.39783611
C        1.70956323       0.02357084       0.35232752
N        2.84473849       0.03908940       0.55881355
C        4.24547025       0.05828234       0.81164248
16
Properties=species:S:1:pos:R:3 charge=1 charge_a=1 charge_b=0 selection_a=1-10 selection_b=11-16 scaling=0.9 benchmark_Eint=-20.72 benchmark_unit=kcal/mol group=NHk-C pbc="F F F"
C       -2.77463081      -0.04294352      -1.26971013
C       -1.42662831      -0.02729430      -1.43234136
N       -0.86767540      -0.01199524      -0.17465902
H        0.15772860       0.00216535       0.03902518
C       -1.82972405      -0.01788546       0.73579021
N       -2.99855516      -0.03667702       0.09122635
H       -3.57501440      -0.05761742      -1.98432130
H       -0.82868078      -0.02580928      -2.32348980
H       -1.69574019      -0.00915006       1.80158067
H       -3.90179777      -0.04492687       0.53820503
H        4.77288213       0.93812846       0.36184039
H        4.50631461       0.09381845       1.90312869
H        4.78743257      -0.83879850       0.41626566
C        1.80084762       0.02482999       0.37075707
N        2.93602288       0.04034855       0.57724310
C        4.33675464       0.05954148       0.83007203
16
Properties=species:S:1:pos:R:3 charge=1 charge_a=1 charge_b=0 selection_a=1-10 selection_b=11-16 scaling=0.95 benchmark_Eint=-21.783 benchmark_unit=kcal/mol group=NHk-C pbc="F F F"
C       -2.77463081      -0.04294352      -1.26971013
C       -1.42662831      -0.02729430      -1.43234136
N       -0.86767540      -0.01199524      -0.17465902
H        0.15772860       0.00216535       0.03902518
C       -1.82972405      -0.01788546       0.73579021
N       -2.99855516      -0.03667702       0.09122635
H       -3.57501440      -0.05761742      -1.98432130
H       -0.82868078      -0.02580928      -2.32348980
H       -1.69574019      -0.00915006       1.80158067
H       -3.90179777      -0.04492687       0.53820503
H        4.86416652       0.93938760       0.38026994
H        4.59759900       0.09507760       1.92155824
H        4.87871696      -0.83753936       0.43469521
C        1.89213201       0.02608913       0.38918662
N        3.02730727       0.04160769       0.59567265
C        4.42803903       0.06080063       0.84850158
16
Properties=species:S:1:pos:R:3 charge=1 charge_a=1 charge_b=0 selection_a=1-10 selection_b=11-16 scaling=1.0 benchmark_Eint=-22.116 benchmark_unit=kcal/mol group=NHk-C pbc="F F F"
C       -2.77463081      -0.04294352      -1.26971013
C       -1.42662831      -0.02729430      -1.43234136
N       -0.86767540      -0.01199524      -0.17465902
H        0.15772860       0.00216535       0.03902518
C       -1.82972405      -0.01788546       0.73579021
N       -2.99855516      -0.03667702       0.09122635
H       -3.57501440      -0.05761742      -1.98432130
H       -0.82868078      -0.02580928      -2.32348980
H       -1.69574019      -0.00915006       1.80158067
H       -3.90179777      -0.04492687       0.53820503
H        4.95545091       0.94064675       0.39869949
H        4.68888339       0.09633674       1.93998779
H        4.97000135      -0.83628021       0.45312476
C        1.98341640       0.02734828       0.40761617
N        3.11859166       0.04286684       0.61410219
C        4.51932342       0.06205978       0.86693112
16
Properties=species:S:1:pos:R:3 charge=1 charge_a=1 charge_b=0 selection_a=1-10 selection_b=11-16 scaling=1.05 benchmark_Eint=-21.946 benchmark_unit=kcal/mol group=NHk-C pbc="F F F"
C       -2.77463081      -0.04294352      -1.26971013
C       -1.42662831      -0.02729430      -1.43234136
N       -0.86767540      -0.01199524      -0.17465902
H        0.15772860       0.00216535       0.03902518
C       -1.82972405      -0.01788546       0.73579021
N       -2.99855516      -0.03667702       0.09122635
H       -3.57501440      -0.05761742      -1.98432130
H       -0.82868078      -0.02580928      -2.32348980
H       -1.69574019      -0.00915006       1.80158067
H       -3.90179777      -0.04492687       0.53820503
H        5.04673530       0.94190590       0.41712904
H        4.78016778       0.09759589       1.95841734
H        5.06128574      -0.83502106       0.47155431
C        2.07470079       0.02860743       0.42604572
N        3.20987605       0.04412598       0.63253174
C        4.61060781       0.06331892       0.88536067
16
Properties=species:S:1:pos:R:3 charge=1 charge_a=1 charge_b=0 selection_a=1-10 selection_b=11-16 scaling=1.1 benchmark_Eint=-21.439 benchmark_unit=kcal/mol group=NHk-C pbc="F F F"
C       -2.77463081      -0.04294352      -1.26971013
C       -1.42662831      -0.02729430      -1.43234136
N       -0.86767540      -0.01199524      -0.17465902
H        0.15772860       0.00216535       0.03902518
C       -1.82972405      -0.01788546       0.73579021
N       -2.99855516      -0.03667702       0.09122635
H       -3.57501440      -0.05761742      -1.98432130
H       -0.82868078      -0.02580928      -2.32348980
H       -1.69574019      -0.00915006       1.80158067
H       -3.90179777      -0.04492687       0.53820503
H        5.13801969       0.94316504       0.43555859
H        4.87145217       0.09885504       1.97684688
H        5.15257013      -0.83376192       0.48998386
C        2.16598518       0.02986657       0.44447527
N        3.30116044       0.04538513       0.65096129
C        4.70189220       0.06457807       0.90379022
16
Properties=species:S:1:pos:R:3 charge=1 charge_a=1 charge_b=0 selection_a=1-10 selection_b=11-16 scaling=1.25 benchmark_Eint=-18.946 benchmark_unit=kcal/mol group=NHk-C pbc="F F F"
C       -2.77463081      -0.04294352      -1.26971013
C       -1.42662831      -0.02729430      -1.43234136
N       -0.86767540      -0.01199524      -0.17465902
H        0.15772860       0.00216535       0.03902518
C       -1.82972405      -0.01788546       0.73579021
N       -2.99855516      -0.03667702       0.09122635
H       -3.57501440      -0.05761742      -1.98432130
H       -0.82868078      -0.02580928      -2.32348980
H       -1.69574019      -0.00915006       1.80158067
H       -3.90179777      -0.04492687       0.53820503
H        5.41187286       0.94694248       0.49084724
H        5.14530534       0.10263248       2.03213553
H        5.42642330      -0.82998448       0.54527251
C        2.43983835       0.03364401       0.49976392
N        3.57501361       0.04916257       0.70624994
C        4.97574537       0.06835551       0.95907887
16
Properties=species:S:1:pos:R:3 charge=1 charge_a=1 charge_b=0 selection_a=1-10 selection_b=11-16 scaling=1.5 benchmark_Eint=-14.468 benchmark_unit=kcal/mol group=NHk-C pbc="F F F"
C       -2.77463081      -0.04294352      -1.26971013
C       -1.42662831      -0.02729430      -1.43234136
N       -0.86767540      -0.01199524      -0.17465902
H        0.15772860       0.00216535       0.03902518
C       -1.82972405      -0.01788546       0.73579021
N       -2.99855516      -0.03667702       0.09122635
H       -3.57501440      -0.05761742      -1.98432130
H       -0.82868078      -0.02580928      -2.32348980
H       -1.69574019      -0.00915006       1.80158067
H       -3.90179777      -0.04492687       0.53820503
H        5.86829481       0.95323821       0.58299498
H        5.60172729       0.10892821       2.12428328
H        5.88284525      -0.82368875       0.63742025
C        2.89626030       0.03993974       0.59191166
N        4.03143556       0.05545830       0.79839769
C        5.43216732       0.07465124       1.05122662
16
Properties=species:S:1:pos:R:3 charge=1 charge_a=1 charge_b=0 selection_a=1-10 selection_b=11-16 scaling=2.0 benchmark_Eint=-8.791 benchmark_unit=kcal/mol group=NHk-C pbc="F F F"
C       -2.77463081      -0.04294352      -1.26971013
C       -1.42662831      -0.02729430      -1.43234136
N       -0.86767540      -0.01199524      -0.17465902
H        0.15772860       0.00216535       0.03902518
C       -1.82972405      -0.01788546       0.73579021
N       -2.99855516      -0.03667702       0.09122635
H       -3.57501440      -0.05761742      -1.98432130
H       -0.82868078      -0.02580928      -2.32348980
H       -1.69574019      -0.00915006       1.80158067
H       -3.90179777      -0.04492687       0.53820503
H        6.78113871       0.96582968       0.76729048
H        6.51457119       0.12151967       2.30857877
H        6.79568915      -0.81109728       0.82171574
C        3.80910420       0.05253121       0.77620715
N        4.94427946       0.06804977       0.98269318
C        6.34501122       0.08724271       1.23552211
20
Properties=species:S:1:pos:R:3 charge=1 charge_a=1 charge_b=0 selection_a=1-14 selection_b=15-20 scaling=0.8 benchmark_Eint=-15.702 benchmark_unit=kcal/mol group=NHk-C pbc="F F F"
C        0.44824162      -1.11029994      -2.12743028
N       -0.16487855       0.11313794      -1.53746271
H       -0.05497708       0.03914435      -0.49693380
C        0.54725989       1.35096583      -1.96338840
C       -1.62675547       0.19050160      -1.81620724
H        1.49599262      -1.14828504      -1.84670874
H        0.35393957      -1.07087467      -3.20887562
H       -0.06806865      -1.98319150      -1.74076000
H        1.59319308       1.26748996      -1.68574736
H        0.10038782       2.20342130      -1.46174108
H        0.45584449       1.46282142      -3.04000892
H       -2.10477872      -0.70641412      -1.43533513
H       -1.78204017       0.26820956      -2.88850769
H       -2.03359086       1.06435172      -1.31731195
H        0.97080180       0.57775556       3.91170730
H       -0.59854738      -0.25082900       4.02026772
H        0.89045607      -1.19400548       3.78688892
C        0.10421886      -0.07003058       0.99653065
N        0.22853449      -0.15596357       2.14037378
C        0.38231076      -0.26232691       3.55220062
20
Properties=species:S:1:pos:R:3 charge=1 charge_a=1 charge_b=0 selection_a=1-14 selection_b=15-20 scaling=0.85 benchmark_Eint=-19.321 benchmark_unit=kcal/mol group=NHk-C pbc="F F F"
C        0.44824162      -1.11029994      -2.12743028
N       -0.16487855       0.11313794      -1.53746271
H       -0.05497708       0.03914435      -0.49693380
C        0.54725989       1.35096583      -1.96338840
C       -1.62675547       0.19050160      -1.81620724
H        1.49599262      -1.14828504      -1.84670874
H        0.35393957      -1.07087467      -3.20887562
H       -0.06806865      -1.98319150      -1.74076000
H        1.59319308       1.26748996      -1.68574736
H        0.10038782       2.20342130      -1.46174108
H        0.45584449       1.46282142      -3.04000892
H       -2.10477872      -0.70641412      -1.43533513
H       -1.78204017       0.26820956      -2.88850769
H       -2.03359086       1.06435172      -1.31731195
H        0.98075154       0.57093213       4.00504883
H       -0.58859763      -0.25765244       4.11360925
H        0.90040582      -1.20082892       3.88023045
C        0.11416861      -0.07685401       1.08987217
N        0.23848423      -0.16278700       2.23371531
C        0.39226051      -0.26915035       3.64554215
20
Properties=species:S:1:pos:R:3 charge=1 charge_a=1 charge_b=0 selection_a=1-14 selection_b=15-20 scaling=0.9 benchmark_Eint=-21.481 benchmark_unit=kcal/mol group=NHk-C pbc="F F F"
C        0.44824162      -1.11029994      -2.12743028
N       -0.16487855       0.11313794      -1.53746271
H       -0.05497708       0.03914435      -0.49693380
C        0.54725989       1.35096583      -1.96338840
C       -1.62675547       0.19050160      -1.81620724
H        1.49599262      -1.14828504      -1.84670874
H        0.35393957      -1.07087467      -3.20887562
H       -0.06806865      -1.98319150      -1.74076000
H        1.59319308       1.26748996      -1.68574736
H        0.10038782       2.20342130      -1.46174108
H        0.45584449       1.46282142      -3.04000892
H       -2.10477872      -0.70641412      -1.43533513
H       -1.78204017       0.26820956      -2.88850769
H       -2.03359086       1.06435172      -1.31731195
H        0.99070129       0.56410870       4.09839036
H       -0.57864788      -0.26447587       4.20695077
H        0.91035556      -1.20765235       3.97357198
C        0.12411835      -0.08367744       1.18321370
N        0.24843398      -0.16961043       2.32705684
C        0.40221025      -0.27597378       3.73888367
20
Properties=species:S:1:pos:R:3 charge=1 charge_a=1 charge_b=0 selection_a=1-14 selection_b=15-20 scaling=0.95 benchmark_Eint=-22.601 benchmark_unit=kcal/mol group=NHk-C pbc="F F F"
C        0.44824162      -1.11029994      -2.12743028
N       -0.16487855       0.11313794      -1.53746271
H       -0.05497708       0.03914435      -0.49693380
C        0.54725989       1.35096583      -1.96338840
C       -1.62675547       0.19050160      -1.81620724
H        1.49599262      -1.14828504      -1.84670874
H        0.35393957      -1.07087467      -3.20887562
H       -0.06806865      -1.98319150      -1.74076000
H        1.59319308       1.26748996      -1.68574736
H        0.10038782       2.20342130      -1.46174108
H        0.45584449       1.46282142      -3.04000892
H       -2.10477872      -0.70641412      -1.43533513
H       -1.78204017       0.26820956      -2.88850769
H       -2.03359086       1.06435172      -1.31731195
H        1.00065104       0.55728526       4.19173188
H       -0.56869814      -0.27129930       4.30029230
H        0.92030531      -1.21447578       4.06691351
C        0.13406810      -0.09050088       1.27655523
N        0.25838373      -0.17643387       2.42039836
C        0.41216000      -0.28279721       3.83222520
20
Properties=species:S:1:pos:R:3 charge=1 charge_a=1 charge_b=0 selection_a=1-14 selection_b=15-20 scaling=1.0 benchmark_Eint=-22.983 benchmark_unit=kcal/mol group=NHk-C pbc="F F F"
C        0.44824162      -1.11029994      -2.12743028
N       -0.16487855       0.11313794      -1.53746271
H       -0.05497708       0.03914435      -0.49693380
C        0.54725989       1.35096583      -1.96338840
C       -1.62675547       0.19050160      -1.81620724
H        1.49599262      -1.14828504      -1.84670874
H        0.35393957      -1.07087467      -3.20887562
H       -0.06806865      -1.98319150      -1.74076000
H        1.59319308       1.26748996      -1.68574736
H        0.10038782       2.20342130      -1.46174108
H        0.45584449       1.46282142      -3.04000892
H       -2.10477872      -0.70641412      -1.43533513
H       -1.78204017       0.26820956      -2.88850769
H       -2.03359086       1.06435172      -1.31731195
H        1.01060078       0.55046183       4.28507341
H       -0.55874839      -0.27812274       4.39363383
H        0.93025506      -1.22129922       4.16025503
C        0.14401785      -0.09732431       1.36989676
N        0.26833347      -0.18325730       2.51373989
C        0.42210974      -0.28962065       3.92556673
20
Properties=species:S:1:pos:R:3 charge=1 charge_a=1 charge_b=0 selection_a=1-14 selection_b=15-20 scaling=1.05 benchmark_Eint=-22.855 benchmark_unit=kcal/mol group=NHk-C pbc="F F F"
C        0.44824162      -1.11029994      -2.12743028
N       -0.16487855       0.11313794      -1.53746271
H       -0.05497708       0.03914435      -0.49693380
C        0.54725989       1.35096583      -1.96338840
C       -1.62675547       0.19050160      -1.81620724
H        1.49599262      -1.14828504      -1.84670874
H        0.35393957      -1.07087467      -3.20887562
H       -0.06806865      -1.98319150      -1.74076000
H        1.59319308       1.26748996      -1.68574736
H        0.10038782       2.20342130      -1.46174108
H        0.45584449       1.46282142      -3.04000892
H       -2.10477872      -0.70641412      -1.43533513
H       -1.78204017       0.26820956      -2.88850769
H       -2.03359086       1.06435172      -1.31731195
H        1.02055053       0.54363840       4.37841494
H       -0.54879864      -0.28494617       4.48697536
H        0.94020480      -1.22812265       4.25359656
C        0.15396759      -0.10414774       1.46323829
N        0.27828322      -0.19008073       2.60708142
C        0.43205949      -0.29644408       4.01890826
20
Properties=species:S:1:pos:R:3 charge=1 charge_a=1 charge_b=0 selection_a=1-14 selection_b=15-20 scaling=1.1 benchmark_Eint=-22.38 benchmark_unit=kcal/mol group=NHk-C pbc="F F F"
C        0.44824162      -1.11029994      -2.12743028
N       -0.16487855       0.11313794      -1.53746271
H       -0.05497708       0.03914435      -0.49693380
C        0.54725989       1.35096583      -1.96338840
C       -1.62675547       0.19050160      -1.81620724
H        1.49599262      -1.14828504      -1.84670874
H        0.35393957      -1.07087467      -3.20887562
H       -0.06806865      -1.98319150      -1.74076000
H        1.59319308       1.26748996      -1.68574736
H        0.10038782       2.20342130      -1.46174108
H        0.45584449       1.46282142      -3.04000892
H       -2.10477872      -0.70641412      -1.43533513
H       -1.78204017       0.26820956      -2.88850769
H       -2.03359086       1.06435172      -1.31731195
H        1.03050028       0.53681496       4.47175647
H       -0.53884890      -0.29176960       4.58031689
H        0.95015455      -1.23494608       4.34693809
C        0.16391734      -0.11097118       1.55657981
N        0.28823297      -0.19690417       2.70042295
C        0.44200924      -0.30326751       4.11224979
20
Properties=species:S:1:pos:R:3 charge=1 charge_a=1 charge_b=0 selection_a=1-14 selection_b=15-20 scaling=1.25 benchmark_Eint=-19.932 benchmark_unit=kcal/mol group=NHk-C pbc="F F F"
C        0.44824162      -1.11029994      -2.12743028
N       -0.16487855       0.11313794      -1.53746271
H       -0.05497708       0.03914435      -0.49693380
C        0.54725989       1.35096583      -1.96338840
C       -1.62675547       0.19050160      -1.81620724
H        1.49599262      -1.14828504      -1.84670874
H        0.35393957      -1.07087467      -3.20887562
H       -0.06806865      -1.98319150      -1.74076000
H        1.59319308       1.26748996      -1.68574736
H        0.10038782       2.20342130      -1.46174108
H        0.45584449       1.46282142      -3.04000892
H       -2.10477872      -0.70641412      -1.43533513
H       -1.78204017       0.26820956      -2.88850769
H       -2.03359086       1.06435172      -1.31731195
H        1.06034951       0.51634466       4.75178105
H       -0.50899966      -0.31223990       4.86034147
H        0.98000379      -1.25541638       4.62696267
C        0.19376658      -0.13144148       1.83660440
N        0.31808221      -0.21737447       2.98044753
C        0.47185848      -0.32373781       4.39227437
20
Properties=species:S:1:pos:R:3 charge=1 charge_a=1 charge_b=0 selection_a=1-14 selection_b=15-20 scaling=1.5 benchmark_Eint=-15.413 benchmark_unit=kcal/mol group=NHk-C pbc="F F F"
C        0.44824162      -1.11029994      -2.12743028
N       -0.16487855       0.11313794      -1.53746271
H       -0.05497708       0.03914435      -0.49693380
C        0.54725989       1.35096583      -1.96338840
C       -1.62675547       0.19050160      -1.81620724
H        1.49599262      -1.14828504      -1.84670874
H        0.35393957      -1.07087467      -3.20887562
H       -0.06806865      -1.98319150      -1.74076000
H        1.59319308       1.26748996      -1.68574736
H        0.10038782       2.20342130      -1.46174108
H        0.45584449       1.46282142      -3.04000892
H       -2.10477872      -0.70641412      -1.43533513
H       -1.78204017       0.26820956      -2.88850769
H       -2.03359086       1.06435172      -1.31731195
H        1.11009825       0.48222750       5.21848869
H       -0.45925093      -0.34635707       5.32704911
H        1.02975252      -1.28953355       5.09367031
C        0.24351531      -0.16555864       2.30331203
N        0.36783094      -0.25149163       3.44715517
C        0.52160721      -0.35785498       4.85898201
20
Properties=species:S:1:pos:R:3 charge=1 charge_a=1 charge_b=0 selection_a=1-14 selection_b=15-20 scaling=2.0 benchmark_Eint=-9.527 benchmark_unit=kcal/mol group=NHk-C pbc="F F F"
C        0.44824162      -1.11029994      -2.12743028
N       -0.16487855       0.11313794      -1.53746271
H       -0.05497708       0.03914435      -0.49693380
C        0.54725989       1.35096583      -1.96338840
C       -1.62675547       0.19050160      -1.81620724
H        1.49599262      -1.14828504      -1.84670874
H        0.35393957      -1.07087467      -3.20887562
H       -0.06806865      -1.98319150      -1.74076000
H        1.59319308       1.26748996      -1.68574736
H        0.10038782       2.20342130      -1.46174108
H        0.45584449       1.46282142      -3.04000892
H       -2.10477872      -0.70641412      -1.43533513
H       -1.78204017       0.26820956      -2.88850769
H       -2.03359086       1.06435172      -1.31731195
H        1.20959571       0.41399316       6.15190397
H       -0.35975346      -0.41459140       6.26046438
H        1.12924998      -1.35776788       6.02708559
C        0.34301278      -0.23379298       3.23672731
N        0.46732840      -0.31972597       4.38057045
C        0.62110467      -0.42608931       5.79239728
16
Properties=species:S:1:pos:R:3 charge=1 charge_a=1 charge_b=0 selection_a=1-10 selection_b=11-16 scaling=0.8 benchmark_Eint=-14.749 benchmark_unit=kcal/mol group=NHk-C pbc="F F F"
N       -1.57591931       0.80614349      -0.10775584
C       -1.97773335      -0.45947655      -0.09944396
N       -1.06319767      -1.41931100      -0.02523602
N       -3.27608372      -0.76094105      -0.16438323
H       -0.58279754       0.99914853      -0.05700799
H       -2.22662032       1.56798936      -0.16246502
H       -0.08648615      -1.15469018       0.02276017
H       -1.31461685      -2.39065800      -0.01561498
H       -3.97636243      -0.04366676      -0.22085682
H       -3.59156693      -1.71409531      -0.15901235
H        3.82582655       1.39348103       1.10178474
H        4.21471393      -0.07080149       0.17268068
H        3.89972578       1.45967332      -0.67375323
C        1.12385828       0.25920199       0.05626250
N        2.24728992       0.52216797       0.11293639
C        3.63171091       0.84656810       0.18278394
16
Properties=species:S:1:pos:R:3 charge=1 charge_a=1 charge_b=0 selection_a=1-10 selection_b=11-16 scaling=0.85 benchmark_Eint=-17.923 benchmark_unit=kcal/mol group=NHk-C pbc="F F F"
N       -1.57591931       0.80614349      -0.10775584
C       -1.97773335      -0.45947655      -0.09944396
N       -1.06319767      -1.41931100      -0.02523602
N       -3.27608372      -0.76094105      -0.16438323
H       -0.58279754       0.99914853      -0.05700799
H       -2.22662032       1.56798936      -0.16246502
H       -0.08648615      -1.15469018       0.02276017
H       -1.31461685      -2.39065800      -0.01561498
H       -3.97636243      -0.04366676      -0.22085682
H       -3.59156693      -1.71409531      -0.15901235
H        3.93468846       1.41863256       1.10726227
H        4.32357584      -0.04564996       0.17815821
H        4.00858769       1.48482484      -0.66827570
C        1.23272019       0.28435352       0.06174003
N        2.35615183       0.54731949       0.11841393
C        3.74057282       0.87171962       0.18826147
16
Properties=species:S:1:pos:R:3 charge=1 charge_a=1 charge_b=0 selection_a=1-10 selection_b=11-16 scaling=0.9 benchmark_Eint=-19.836 benchmark_unit=kcal/mol group=NHk-C pbc="F F F"
N       -1.57591931       0.80614349      -0.10775584
C       -1.97773335      -0.45947655      -0.09944396
N       -1.06319767      -1.41931100      -0.02523602
N       -3.27608372      -0.76094105      -0.16438323
H       -0.58279754       0.99914853      -0.05700799
H       -2.22662032       1.56798936      -0.16246502
H       -0.08648615      -1.15469018       0.02276017
H       -1.31461685      -2.39065800      -0.01561498
H       -3.97636243      -0.04366676      -0.22085682
H       -3.59156693      -1.71409531      -0.15901235
H        4.04355037       1.44378408       1.11273980
H        4.43243775      -0.02049844       0.18363575
H        4.11744960       1.50997637      -0.66279817
C        1.34158210       0.30950504       0.06721757
N        2.46501374       0.57247102       0.12389146
C        3.84943473       0.89687115       0.19373900
16
Properties=species:S:1:pos:R:3 charge=1 charge_a=1 charge_b=0 selection_a=1-10 selection_b=11-16 scaling=0.95 benchmark_Eint=-20.81 benchmark_unit=kcal/mol group=NHk-C pbc="F F F"
N       -1.57591931       0.80614349      -0.10775584
C       -1.97773335      -0.45947655      -0.09944396
N       -1.06319767      -1.41931100      -0.02523602
N       -3.27608372      -0.76094105      -0.16438323
H       -0.58279754       0.99914853      -0.05700799
H       -2.22662032       1.56798936      -0.16246502
H       -0.08648615      -1.15469018       0.02276017
H       -1.31461685      -2.39065800      -0.01561498
H       -3.97636243      -0.04366676      -0.22085682
H       -3.59156693      -1.71409531      -0.15901235
H        4.15241228       1.46893561       1.11821734
H        4.54129966       0.00465309       0.18911328
H        4.22631151       1.53512790      -0.65732063
C        1.45044401       0.33465657       0.07269510
N        2.57387565       0.59762254       0.12936900
C        3.95829664       0.92202267       0.19921654
16
Properties=species:S:1:pos:R:3 charge=1 charge_a=1 charge_b=0 selection_a=1-10 selection_b=11-16 scaling=1.0 benchmark_Eint=-21.101 benchmark_unit=kcal/mol group=NHk-C pbc="F F F"
N       -1.57591931       0.80614349      -0.10775584
C       -1.97773335      -0.45947655      -0.09944396
N       -1.06319767      -1.41931100      -0.02523602
N       -3.27608372      -0.76094105      -0.16438323
H       -0.58279754       0.99914853      -0.05700799
H       -2.22662032       1.56798936      -0.16246502
H       -0.08648615      -1.15469018       0.02276017
H       -1.31461685      -2.39065800      -0.01561498
H       -3.97636243      -0.04366676      -0.22085682
H       -3.59156693      -1.71409531      -0.15901235
H        4.26127419       1.49408713       1.12369487
H        4.65016157       0.02980461       0.19459082
H        4.33517342       1.56027942      -0.65184310
C        1.55930592       0.35980809       0.07817263
N        2.68273755       0.62277407       0.13484653
C        4.06715854       0.94717420       0.20469407
16
Properties=species:S:1:pos:R:3 charge=1 charge_a=1 charge_b=0 selection_a=1-10 selection_b=11-16 scaling=1.05 benchmark_Eint=-20.91 benchmark_unit=kcal/mol group=NHk-C pbc="F F F"
N       -1.57591931       0.80614349      -0.10775584
C       -1.97773335      -0.45947655      -0.09944396
N       -1.06319767      -1.41931100      -0.02523602
N       -3.27608372      -0.76094105      -0.16438323
H       -0.58279754       0.99914853      -0.05700799
H       -2.22662032       1.56798936      -0.16246502
H       -0.08648615      -1.15469018       0.02276017
H       -1.31461685      -2.39065800      -0.01561498
H       -3.97636243      -0.04366676      -0.22085682
H       -3.59156693      -1.71409531      -0.15901235
H        4.37013609       1.51923866       1.12917241
H        4.75902348       0.05495614       0.20006835
H        4.44403532       1.58543095      -0.64636556
C        1.66816783       0.38495962       0.08365017
N        2.79159946       0.64792560       0.14032406
C        4.17602045       0.97232573       0.21017161
16
Properties=species:S:1:pos:R:3 charge=1 charge_a=1 charge_b=0 selection_a=1-10 selection_b=11-16 scaling=1.1 benchmark_Eint=-20.389 benchmark_unit=kcal/mol group=NHk-C pbc="F F F"
N       -1.57591931       0.80614349      -0.10775584
C       -1.97773335      -0.45947655      -0.09944396
N       -1.06319767      -1.41931100      -0.02523602
N       -3.27608372      -0.76094105      -0.16438323
H       -0.58279754       0.99914853      -0.05700799
H       -2.22662032       1.56798936      -0.16246502
H       -0.08648615      -1.15469018       0.02276017
H       -1.31461685      -2.39065800      -0.01561498
H       -3.97636243      -0.04366676      -0.22085682
H       -3.59156693      -1.71409531      -0.15901235
H        4.47899800       1.54439018       1.13464994
H        4.86788539       0.08010767       0.20554588
H        4.55289723       1.61058247      -0.64088803
C        1.77702973       0.41011115       0.08912770
N        2.90046137       0.67307712       0.14580160
C        4.28488236       0.99747725       0.21564914
16
Properties=species:S:1:pos:R:3 charge=1 charge_a=1 charge_b=0 selection_a=1-10 selection_b=11-16 scaling=1.25 benchmark_Eint=-17.869 benchmark_unit=kcal/mol group=NHk-C pbc="F F F"
N       -1.57591931       0.80614349      -0.10775584
C       -1.97773335      -0.45947655      -0.09944396
N       -1.06319767      -1.41931100      -0.02523602
N       -3.27608372      -0.76094105      -0.16438323
H       -0.58279754       0.99914853      -0.05700799
H       -2.22662032       1.56798936      -0.16246502
H       -0.08648615      -1.15469018       0.02276017
H       -1.31461685      -2.39065800      -0.01561498
H       -3.97636243      -0.04366676      -0.22085682
H       -3.59156693      -1.71409531      -0.15901235
H        4.80558373       1.61984476       1.15108254
H        5.19447111       0.15556224       0.22197849
H        4.87948296       1.68603705      -0.62445543
C        2.10361546       0.48556572       0.10556030
N        3.22704710       0.74853170       0.16223420
C        4.61146809       1.07293183       0.23208174
16
Properties=species:S:1:pos:R:3 charge=1 charge_a=1 charge_b=0 selection_a=1-10 selection_b=11-16 scaling=1.5 benchmark_Eint=-13.414 benchmark_unit=kcal/mol group=NHk-C pbc="F F F"
N       -1.57591931       0.80614349      -0.10775584
C       -1.97773335      -0.45947655      -0.09944396
N       -1.06319767      -1.41931100      -0.02523602
N       -3.27608372      -0.76094105      -0.16438323
H       -0.58279754       0.99914853      -0.05700799
H       -2.22662032       1.56798936      -0.16246502
H       -0.08648615      -1.15469018       0.02276017
H       -1.31461685      -2.39065800      -0.01561498
H       -3.97636243      -0.04366676      -0.22085682
H       -3.59156693      -1.71409531      -0.15901235
H        5.34989327       1.74560239       1.17847021
H        5.73878065       0.28131987       0.24936616
H        5.42379250       1.81179468      -0.59706776
C        2.64792500       0.61132335       0.13294797
N        3.77135664       0.87428933       0.18962187
C        5.15577763       1.19868946       0.25946941
16
Properties=species:S:1:pos:R:3 charge=1 charge_a=1 charge_b=0 selection_a=1-10 selection_b=11-16 scaling=2.0 benchmark_Eint=-7.928 benchmark_unit=kcal/mol group=NHk-C pbc="F F F"
N       -1.57591931       0.80614349      -0.10775584
C       -1.97773335      -0.45947655      -0.09944396
N       -1.06319767      -1.41931100      -0.02523602
N       -3.27608372      -0.76094105      -0.16438323
H       -0.58279754       0.99914853      -0.05700799
H       -2.22662032       1.56798936      -0.16246502
H       -0.08648615      -1.15469018       0.02276017
H       -1.31461685      -2.39065800      -0.01561498
H       -3.97636243      -0.04366676      -0.22085682
H       -3.59156693      -1.71409531      -0.15901235
H        6.43851235       1.99711765       1.23324555
H        6.82739974       0.53283513       0.30414150
H        6.51241158       2.06330994      -0.54229242
C        3.73654408       0.86283861       0.18772332
N        4.85997572       1.12580459       0.24439721
C        6.24439671       1.45020471       0.31424475
9
Properties=species:S:1:pos:R:3 charge=-2 charge_a=0 charge_b=-2 selection_a=1-3 selection_b=4-9 scaling=0.8 benchmark_Eint=-22.482 benchmark_unit=kcal/mol group=OH-Oa pbc="F F F"
O       -0.54516584      -2.95202823      -1.20093974
H       -0.45420138      -2.05965858      -1.60799447
H       -0.40725055      -2.60491840      -0.28948797
C       -0.08496698      -0.45998590      -0.18709525
O       -0.22042703      -0.56313042      -1.44304110
O       -0.14633255      -1.42225495       0.63548332
C        0.17834104       0.96545714       0.39273045
O       -0.83846438       1.63805260       0.70857138
O        1.38401945       1.31525929       0.49276126
9
Properties=species:S:1:pos:R:3 charge=-2 charge_a=0 charge_b=-2 selection_a=1-3 selection_b=4-9 scaling=0.85 benchmark_Eint=-26.797 benchmark_unit=kcal/mol group=OH-Oa pbc="F F F"
O       -0.54516584      -2.95202823      -1.20093974
H       -0.45420138      -2.05965858      -1.60799447
H       -0.40725055      -2.60491840      -0.28948797
C       -0.06903214      -0.37368482      -0.15198702
O       -0.20449219      -0.47682933      -1.40793287
O       -0.13039771      -1.33595387       0.67059155
C        0.19427588       1.05175822       0.42783868
O       -0.82252954       1.72435369       0.74367961
O        1.39995428       1.40156037       0.52786949
9
Properties=species:S:1:pos:R:3 charge=-2 charge_a=0 charge_b=-2 selection_a=1-3 selection_b=4-9 scaling=0.9 benchmark_Eint=-29.228 benchmark_unit=kcal/mol group=OH-Oa pbc="F F F"
O       -0.54516584      -2.95202823      -1.20093974
H       -0.45420138      -2.05965858      -1.60799447
H       -0.40725055      -2.60491840      -0.28948797
C       -0.05309730      -0.28738373      -0.11687879
O       -0.18855735      -0.39052825      -1.37282463
O       -0.11446288      -1.24965278       0.70569978
C        0.21021071       1.13805931       0.46294692
O       -0.80659470       1.81065477       0.77878785
O        1.41588912       1.48786146       0.56297773
9
Properties=species:S:1:pos:R:3 charge=-2 charge_a=0 charge_b=-2 selection_a=1-3 selection_b=4-9 scaling=0.95 benchmark_Eint=-30.347 benchmark_unit=kcal/mol group=OH-Oa pbc="F F F"
O       -0.54516584      -2.95202823      -1.20093974
H       -0.45420138      -2.05965858      -1.60799447
H       -0.40725055      -2.60491840      -0.28948797
C       -0.03716246      -0.20108265      -0.08177056
O       -0.17262251      -0.30422716      -1.33771640
O       -0.09852804      -1.16335170       0.74080801
C        0.22614555       1.22436040       0.49805515
O       -0.79065986       1.89695586       0.81389608
O        1.43182396       1.57416254       0.59808596
9
Properties=species:S:1:pos:R:3 charge=-2 charge_a=0 charge_b=-2 selection_a=1-3 selection_b=4-9 scaling=1.0 benchmark_Eint=-30.569 benchmark_unit=kcal/mol group=OH-Oa pbc="F F F"
O       -0.54516584      -2.95202823      -1.20093974
H       -0.45420138      -2.05965858      -1.60799447
H       -0.40725055      -2.60491840      -0.28948797
C       -0.02122762      -0.11478156      -0.04666232
O       -0.15668767      -0.21792608      -1.30260817
O       -0.08259320      -1.07705061       0.77591625
C        0.24208039       1.31066148       0.53316338
O       -0.77472502       1.98325694       0.84900431
O        1.44775880       1.66046363       0.63319419
9
Properties=species:S:1:pos:R:3 charge=-2 charge_a=0 charge_b=-2 selection_a=1-3 selection_b=4-9 scaling=1.05 benchmark_Eint=-30.188 benchmark_unit=kcal/mol group=OH-Oa pbc="F F F"
O       -0.54516584      -2.95202823      -1.20093974
H       -0.45420138      -2.05965858      -1.60799447
H       -0.40725055      -2.60491840      -0.28948797
C       -0.00529278      -0.02848047      -0.01155409
O       -0.14075283      -0.13162499      -1.26749993
O       -0.06665836      -0.99074952       0.81102448
C        0.25801523       1.39696257       0.56827161
O       -0.75879019       2.06955803       0.88411254
O        1.46369364       1.74676472       0.66830243
9
Properties=species:S:1:pos:R:3 charge=-2 charge_a=0 charge_b=-2 selection_a=1-3 selection_b=4-9 scaling=1.1 benchmark_Eint=-29.414 benchmark_unit=kcal/mol group=OH-Oa pbc="F F F"
O       -0.54516584      -2.95202823      -1.20093974
H       -0.45420138      -2.05965858      -1.60799447
H       -0.40725055      -2.60491840      -0.28948797
C        0.01064206       0.05782061       0.02355414
O       -0.12481799      -0.04532390      -1.23239170
O       -0.05072352      -0.90444844       0.84613271
C        0.27395007       1.48326365       0.60337984
O       -0.74285535       2.15585912       0.91922078
O        1.47962848       1.83306580       0.70341066
9
Properties=species:S:1:pos:R:3 charge=-2 charge_a=0 charge_b=-2 selection_a=1-3 selection_b=4-9 scaling=1.25 benchmark_Eint=-26.014 benchmark_unit=kcal/mol group=OH-Oa pbc="F F F"
O       -0.54516584      -2.95202823      -1.20093974
H       -0.45420138      -2.05965858      -1.60799447
H       -0.40725055      -2.60491840      -0.28948797
C        0.05844657       0.31672387       0.12887884
O       -0.07701348       0.21357935      -1.12706700
O       -0.00291900      -0.64554518       0.95145741
C        0.32175459       1.74216691       0.70870454
O       -0.69505083       2.41476237       1.02454547
O        1.52743300       2.09196906       0.80873536
9
Properties=species:S:1:pos:R:3 charge=-2 charge_a=0 charge_b=-2 selection_a=1-3 selection_b=4-9 scaling=1.5 benchmark_Eint=-20.117 benchmark_unit=kcal/mol group=OH-Oa pbc="F F F"
O       -0.54516584      -2.95202823      -1.20093974
H       -0.45420138      -2.05965858      -1.60799447
H       -0.40725055      -2.60491840      -0.28948797
C        0.13812077       0.74822930       0.30442000
O        0.00266072       0.64508478      -0.95152584
O        0.07675519      -0.21403975       1.12699857
C        0.40142878       2.17367234       0.88424570
O       -0.61537663       2.84626780       1.20008664
O        1.60710719       2.52347449       0.98427652
9
Properties=species:S:1:pos:R:3 charge=-2 charge_a=0 charge_b=-2 selection_a=1-3 selection_b=4-9 scaling=2.0 benchmark_Eint=-12.323 benchmark_unit=kcal/mol group=OH-Oa pbc="F F F"
O       -0.54516584      -2.95202823      -1.20093974
H       -0.45420138      -2.05965858      -1.60799447
H       -0.40725055      -2.60491840      -0.28948797
C        0.29746916       1.61124016       0.65550233
O        0.16200911       1.50809564      -0.60044352
O        0.23610358       0.64897111       1.47808090
C        0.56077718       3.03668320       1.23532803
O       -0.45602824       3.70927866       1.55116896
O        1.76645558       3.38648535       1.33535884
22
Properties=species:S:1:pos:R:3 charge=-1 charge_a=0 charge_b=-1 selection_a=1-8 selection_b=9-22 scaling=0.8 benchmark_Eint=-21.801 benchmark_unit=kcal/mol group=OH-Oa pbc="F F F"
C        3.75573183      -0.94060755       0.03980612
O        3.61400633      -0.91425630       1.24893931
O        2.86284172      -0.61895571      -0.85806032
H        1.90523200      -0.32326657      -0.48137879
C        5.06646219      -1.37954707      -0.60017057
H        5.79826600      -1.61607519       0.16704324
H        4.89176837      -2.25336864      -1.22805578
H        5.44648710      -0.58868144      -1.24692977
O        0.89851496       0.08860335      -0.15853457
C       -0.17513233      -0.35645700      -0.67725644
O       -0.29477022      -1.22187267      -1.55084648
C       -1.45208118       0.28202605      -0.12833460
C       -2.69211362      -0.09071272      -0.64212084
C       -3.86214593       0.47963419      -0.15644217
C       -3.80520035       1.43283917       0.85580348
C       -2.57095156       1.80909273       1.37577291
C       -1.40299603       1.23703797       0.88509744
H       -2.70643314      -0.83501268      -1.42522152
H       -4.81988313       0.18222546      -0.56450593
H       -4.71539239       1.87788072       1.23682226
H       -2.52059887       2.54859574       2.16484893
H       -0.43359068       1.51218030       1.27328132
22
Properties=species:S:1:pos:R:3 charge=-1 charge_a=0 charge_b=-1 selection_a=1-8 selection_b=9-22 scaling=0.85 benchmark_Eint=-26.355 benchmark_unit=kcal/mol group=OH-Oa pbc="F F F"
C        3.75573183      -0.94060755       0.03980612
O        3.61400633      -0.91425630       1.24893931
O        2.86284172      -0.61895571      -0.85806032
H        1.90523200      -0.32326657      -0.48137879
C        5.06646219      -1.37954707      -0.60017057
H        5.79826600      -1.61607519       0.16704324
H        4.89176837      -2.25336864      -1.22805578
H        5.44648710      -0.58868144      -1.24692977
O        0.83559515       0.11434522      -0.13835681
C       -0.23805214      -0.33071513      -0.65707868
O       -0.35769004      -1.19613080      -1.53066871
C       -1.51500100       0.30776792      -0.10815684
C       -2.75503343      -0.06497085      -0.62194307
C       -3.92506574       0.50537606      -0.13626441
C       -3.86812017       1.45858104       0.87598125
C       -2.63387137       1.83483460       1.39595067
C       -1.46591585       1.26277984       0.90527521
H       -2.76935296      -0.80927081      -1.40504376
H       -4.88280294       0.20796733      -0.54432817
H       -4.77831221       1.90362259       1.25700003
H       -2.58351868       2.57433761       2.18502669
H       -0.49651050       1.53792217       1.29345908
22
Properties=species:S:1:pos:R:3 charge=-1 charge_a=0 charge_b=-1 selection_a=1-8 selection_b=9-22 scaling=0.9 benchmark_Eint=-28.943 benchmark_unit=kcal/mol group=OH-Oa pbc="F F F"
C        3.75573183      -0.94060755       0.03980612
O        3.61400633      -0.91425630       1.24893931
O        2.86284172      -0.61895571      -0.85806032
H        1.90523200      -0.32326657      -0.48137879
C        5.06646219      -1.37954707      -0.60017057
H        5.79826600      -1.61607519       0.16704324
H        4.89176837      -2.25336864      -1.22805578
H        5.44648710      -0.58868144      -1.24692977
O        0.77267533       0.14008709      -0.11817905
C       -0.30097196      -0.30497326      -0.63690092
O       -0.42060985      -1.17038893      -1.51049095
C       -1.57792081       0.33350979      -0.08797908
C       -2.81795325      -0.03922898      -0.60176531
C       -3.98798555       0.53111793      -0.11608664
C       -3.93103998       1.48432291       0.89615901
C       -2.69679119       1.86057647       1.41612844
C       -1.52883566       1.28852171       0.92545297
H       -2.83227277      -0.78352894      -1.38486599
H       -4.94572276       0.23370920      -0.52415040
H       -4.84123202       1.92936446       1.27717779
H       -2.64643850       2.60007948       2.20520446
H       -0.55943031       1.56366404       1.31363684
22
Properties=species:S:1:pos:R:3 charge=-1 charge_a=0 charge_b=-1 selection_a=1-8 selection_b=9-22 scaling=0.95 benchmark_Eint=-30.183 benchmark_unit=kcal/mol group=OH-Oa pbc="F F F"
C        3.75573183      -0.94060755       0.03980612
O        3.61400633      -0.91425630       1.24893931
O        2.86284172      -0.61895571      -0.85806032
H        1.90523200      -0.32326657      -0.48137879
C        5.06646219      -1.37954707      -0.60017057
H        5.79826600      -1.61607519       0.16704324
H        4.89176837      -2.25336864      -1.22805578
H        5.44648710      -0.58868144      -1.24692977
O        0.70975552       0.16582897      -0.09800128
C       -0.36389177      -0.27923139      -0.61672315
O       -0.48352966      -1.14464706      -1.49031319
C       -1.64084063       0.35925166      -0.06780131
C       -2.88087306      -0.01348711      -0.58158755
C       -4.05090537       0.55685980      -0.09590888
C       -3.99395980       1.51006478       0.91633677
C       -2.75971100       1.88631834       1.43630620
C       -1.59175548       1.31426358       0.94563073
H       -2.89519258      -0.75778707      -1.36468823
H       -5.00864257       0.25945107      -0.50397264
H       -4.90415184       1.95510633       1.29735555
H       -2.70935831       2.62582135       2.22538222
H       -0.62235012       1.58940591       1.33381461
22
Properties=species:S:1:pos:R:3 charge=-1 charge_a=0 charge_b=-1 selection_a=1-8 selection_b=9-22 scaling=1.0 benchmark_Eint=-30.495 benchmark_unit=kcal/mol group=OH-Oa pbc="F F F"
C        3.75573183      -0.94060755       0.03980612
O        3.61400633      -0.91425630       1.24893931
O        2.86284172      -0.61895571      -0.85806032
H        1.90523200      -0.32326657      -0.48137879
C        5.06646219      -1.37954707      -0.60017057
H        5.79826600      -1.61607519       0.16704324
H        4.89176837      -2.25336864      -1.22805578
H        5.44648710      -0.58868144      -1.24692977
O        0.64683570       0.19157084      -0.07782352
C       -0.42681159      -0.25348952      -0.59654539
O       -0.54644948      -1.11890519      -1.47013542
C       -1.70376044       0.38499353      -0.04762355
C       -2.94379288       0.01225476      -0.56140978
C       -4.11382518       0.58260167      -0.07573112
C       -4.05687961       1.53580665       0.93651454
C       -2.82263082       1.91206021       1.45648397
C       -1.65467529       1.34000545       0.96580850
H       -2.95811240      -0.73204520      -1.34451047
H       -5.07156239       0.28519294      -0.48379488
H       -4.96707165       1.98084820       1.31753332
H       -2.77227813       2.65156322       2.24555998
H       -0.68526994       1.61514778       1.35399237
22
Properties=species:S:1:pos:R:3 charge=-1 charge_a=0 charge_b=-1 selection_a=1-8 selection_b=9-22 scaling=1.05 benchmark_Eint=-30.175 benchmark_unit=kcal/mol group=OH-Oa pbc="F F F"
C        3.75573183      -0.94060755       0.03980612
O        3.61400633      -0.91425630       1.24893931
O        2.86284172      -0.61895571      -0.85806032
H        1.90523200      -0.32326657      -0.48137879
C        5.06646219      -1.37954707      -0.60017057
H        5.79826600      -1.61607519       0.16704324
H        4.89176837      -2.25336864      -1.22805578
H        5.44648710      -0.58868144      -1.24692977
O        0.58391589       0.21731271      -0.05764576
C       -0.48973140      -0.22774765      -0.57636762
O       -0.60936930      -1.09316332      -1.44995766
C       -1.76668026       0.41073540      -0.02744579
C       -3.00671269       0.03799663      -0.54123202
C       -4.17674500       0.60834354      -0.05555335
C       -4.11979943       1.56154852       0.95669230
C       -2.88555063       1.93780208       1.47666173
C       -1.71759511       1.36574732       0.98598626
H       -3.02103221      -0.70630333      -1.32433270
H       -5.13448220       0.31093481      -0.46361711
H       -5.02999147       2.00659007       1.33771108
H       -2.83519794       2.67730509       2.26573775
H       -0.74818975       1.64088965       1.37417014
22
Properties=species:S:1:pos:R:3 charge=-1 charge_a=0 charge_b=-1 selection_a=1-8 selection_b=9-22 scaling=1.1 benchmark_Eint=-29.428 benchmark_unit=kcal/mol group=OH-Oa pbc="F F F"
C        3.75573183      -0.94060755       0.03980612
O        3.61400633      -0.91425630       1.24893931
O        2.86284172      -0.61895571      -0.85806032
H        1.90523200      -0.32326657      -0.48137879
C        5.06646219      -1.37954707      -0.60017057
H        5.79826600      -1.61607519       0.16704324
H        4.89176837      -2.25336864      -1.22805578
H        5.44648710      -0.58868144      -1.24692977
O        0.52099608       0.24305458      -0.03746799
C       -0.55265122      -0.20200578      -0.55618986
O       -0.67228911      -1.06742145      -1.42977990
C       -1.82960007       0.43647727      -0.00726802
C       -3.06963250       0.06373850      -0.52105426
C       -4.23966481       0.63408541      -0.03537559
C       -4.18271924       1.58729039       0.97687006
C       -2.94847044       1.96354395       1.49683949
C       -1.78051492       1.39148919       1.00616402
H       -3.08395203      -0.68056146      -1.30415494
H       -5.19740201       0.33667668      -0.44343935
H       -5.09291128       2.03233194       1.35788884
H       -2.89811775       2.70304697       2.28591551
H       -0.81110957       1.66663152       1.39434790
22
Properties=species:S:1:pos:R:3 charge=-1 charge_a=0 charge_b=-1 selection_a=1-8 selection_b=9-22 scaling=1.25 benchmark_Eint=-25.92 benchmark_unit=kcal/mol group=OH-Oa pbc="F F F"
C        3.75573183      -0.94060755       0.03980612
O        3.61400633      -0.91425630       1.24893931
O        2.86284172      -0.61895571      -0.85806032
H        1.90523200      -0.32326657      -0.48137879
C        5.06646219      -1.37954707      -0.60017057
H        5.79826600      -1.61607519       0.16704324
H        4.89176837      -2.25336864      -1.22805578
H        5.44648710      -0.58868144      -1.24692977
O        0.33223663       0.32028019       0.02306530
C       -0.74141066      -0.12478017      -0.49565657
O       -0.86104855      -0.99019584      -1.36924661
C       -2.01835951       0.51370289       0.05326527
C       -3.25839195       0.14096411      -0.46052097
C       -4.42842426       0.71131102       0.02515770
C       -4.37147868       1.66451601       1.03740335
C       -3.13722989       2.04076956       1.55737278
C       -1.96927437       1.46871480       1.06669731
H       -3.27271147      -0.60333585      -1.24362165
H       -5.38616146       0.41390229      -0.38290606
H       -5.28167072       2.10955755       1.41842213
H       -3.08687720       2.78027258       2.34644880
H       -0.99986901       1.74385713       1.45488119
22
Properties=species:S:1:pos:R:3 charge=-1 charge_a=0 charge_b=-1 selection_a=1-8 selection_b=9-22 scaling=1.5 benchmark_Eint=-19.479 benchmark_unit=kcal/mol group=OH-Oa pbc="F F F"
C        3.75573183      -0.94060755       0.03980612
O        3.61400633      -0.91425630       1.24893931
O        2.86284172      -0.61895571      -0.85806032
H        1.90523200      -0.32326657      -0.48137879
C        5.06646219      -1.37954707      -0.60017057
H        5.79826600      -1.61607519       0.16704324
H        4.89176837      -2.25336864      -1.22805578
H        5.44648710      -0.58868144      -1.24692977
O        0.01763756       0.44898954       0.12395412
C       -1.05600973       0.00392918      -0.39476775
O       -1.17564763      -0.86148649      -1.26835779
C       -2.33295859       0.64241224       0.15415408
C       -3.57299102       0.26967347      -0.35963215
C       -4.74302333       0.84002037       0.12604652
C       -4.68607776       1.79322536       1.13829217
C       -3.45182896       2.16947892       1.65826160
C       -2.28387344       1.59742416       1.16758613
H       -3.58731054      -0.47462649      -1.14273283
H       -5.70076053       0.54261164      -0.28201724
H       -5.59626980       2.23826690       1.51931095
H       -3.40147627       2.90898193       2.44733762
H       -1.31446809       1.87256649       1.55577001
22
Properties=species:S:1:pos:R:3 charge=-1 charge_a=0 charge_b=-1 selection_a=1-8 selection_b=9-22 scaling=2.0 benchmark_Eint=-10.744 benchmark_unit=kcal/mol group=OH-Oa pbc="F F F"
C        3.75573183      -0.94060755       0.03980612
O        3.61400633      -0.91425630       1.24893931
O        2.86284172      -0.61895571      -0.85806032
H        1.90523200      -0.32326657      -0.48137879
C        5.06646219      -1.37954707      -0.60017057
H        5.79826600      -1.61607519       0.16704324
H        4.89176837      -2.25336864      -1.22805578
H        5.44648710      -0.58868144      -1.24692977
O       -0.61156059       0.70640824       0.32573175
C       -1.68520788       0.26134789      -0.19299012
O       -1.80484577      -0.60406778      -1.06658015
C       -2.96215673       0.89983094       0.35593172
C       -4.20218917       0.52709217      -0.15785451
C       -5.37222148       1.09743908       0.32782416
C       -5.31527590       2.05064406       1.34006981
C       -4.08102711       2.42689762       1.86003923
C       -2.91307158       1.85484286       1.36936377
H       -4.21650869      -0.21720779      -0.94095520
H       -6.32995868       0.80003035      -0.08023961
H       -6.22546794       2.49568561       1.72108859
H       -4.03067442       3.16640063       2.64911525
H       -1.94366623       2.12998519       1.75754764
11
Properties=species:S:1:pos:R:3 charge=-1 charge_a=0 charge_b=-1 selection_a=1-8 selection_b=9-11 scaling=0.8 benchmark_Eint=-29.915 benchmark_unit=kcal/mol group=OH-Oa pbc="F F F"
C        1.67957413      -0.61325255       0.10945675
O        1.32725961      -1.76063117      -0.11863939
O        0.91030585       0.40426215       0.35265666
H       -0.21800049       0.22456672       0.33404084
C        3.16011670      -0.23895489       0.13052771
H        3.77525310      -1.11739898      -0.04561121
H        3.35857279       0.51055787      -0.63620202
H        3.41573067       0.20783972       1.09159618
N       -1.75947940       0.97426382      -0.47930701
O       -1.25413667       0.16743254       0.39611392
O       -2.98011608       1.02741904      -0.48204767
11
Properties=species:S:1:pos:R:3 charge=-1 charge_a=0 charge_b=-1 selection_a=1-8 selection_b=9-11 scaling=0.85 benchmark_Eint=-35.55 benchmark_unit=kcal/mol group=OH-Oa pbc="F F F"
C        1.67957413      -0.61325255       0.10945675
O        1.32725961      -1.76063117      -0.11863939
O        0.91030585       0.40426215       0.35265666
H       -0.21800049       0.22456672       0.33404084
C        3.16011670      -0.23895489       0.13052771
H        3.77525310      -1.11739898      -0.04561121
H        3.35857279       0.51055787      -0.63620202
H        3.41573067       0.20783972       1.09159618
N       -1.82423791       0.97069293      -0.47542744
O       -1.31889518       0.16386165       0.39999349
O       -3.04487459       1.02384815      -0.47816810
11
Properties=species:S:1:pos:R:3 charge=-1 charge_a=0 charge_b=-1 selection_a=1-8 selection_b=9-11 scaling=0.9 benchmark_Eint=-38.669 benchmark_unit=kcal/mol group=OH-Oa pbc="F F F"
C        1.67957413      -0.61325255       0.10945675
O        1.32725961      -1.76063117      -0.11863939
O        0.91030585       0.40426215       0.35265666
H       -0.21800049       0.22456672       0.33404084
C        3.16011670      -0.23895489       0.13052771
H        3.77525310      -1.11739898      -0.04561121
H        3.35857279       0.51055787      -0.63620202
H        3.41573067       0.20783972       1.09159618
N       -1.88899642       0.96712205      -0.47154788
O       -1.38365369       0.16029077       0.40387306
O       -3.10963310       1.02027726      -0.47428853
11
Properties=species:S:1:pos:R:3 charge=-1 charge_a=0 charge_b=-1 selection_a=1-8 selection_b=9-11 scaling=0.95 benchmark_Eint=-40.085 benchmark_unit=kcal/mol group=OH-Oa pbc="F F F"
C        1.67957413      -0.61325255       0.10945675
O        1.32725961      -1.76063117      -0.11863939
O        0.91030585       0.40426215       0.35265666
H       -0.21800049       0.22456672       0.33404084
C        3.16011670      -0.23895489       0.13052771
H        3.77525310      -1.11739898      -0.04561121
H        3.35857279       0.51055787      -0.63620202
H        3.41573067       0.20783972       1.09159618
N       -1.95375494       0.96355116      -0.46766831
O       -1.44841220       0.15671988       0.40775263
O       -3.17439161       1.01670638      -0.47040896
11
Properties=species:S:1:pos:R:3 charge=-1 charge_a=0 charge_b=-1 selection_a=1-8 selection_b=9-11 scaling=1.0 benchmark_Eint=-40.347 benchmark_unit=kcal/mol group=OH-Oa pbc="F F F"
C        1.67957413      -0.61325255       0.10945675
O        1.32725961      -1.76063117      -0.11863939
O        0.91030585       0.40426215       0.35265666
H       -0.21800049       0.22456672       0.33404084
C        3.16011670      -0.23895489       0.13052771
H        3.77525310      -1.11739898      -0.04561121
H        3.35857279       0.51055787      -0.63620202
H        3.41573067       0.20783972       1.09159618
N       -2.01851345       0.95998028      -0.46378874
O       -1.51317071       0.15314900       0.41163220
O       -3.23915012       1.01313549      -0.46652939
11
Properties=species:S:1:pos:R:3 charge=-1 charge_a=0 charge_b=-1 selection_a=1-8 selection_b=9-11 scaling=1.05 benchmark_Eint=-39.833 benchmark_unit=kcal/mol group=OH-Oa pbc="F F F"
C        1.67957413      -0.61325255       0.10945675
O        1.32725961      -1.76063117      -0.11863939
O        0.91030585       0.40426215       0.35265666
H       -0.21800049       0.22456672       0.33404084
C        3.16011670      -0.23895489       0.13052771
H        3.77525310      -1.11739898      -0.04561121
H        3.35857279       0.51055787      -0.63620202
H        3.41573067       0.20783972       1.09159618
N       -2.08327196       0.95640939      -0.45990917
O       -1.57792923       0.14957811       0.41551176
O       -3.30390863       1.00956461      -0.46264983
11
Properties=species:S:1:pos:R:3 charge=-1 charge_a=0 charge_b=-1 selection_a=1-8 selection_b=9-11 scaling=1.1 benchmark_Eint=-38.8 benchmark_unit=kcal/mol group=OH-Oa pbc="F F F"
C        1.67957413      -0.61325255       0.10945675
O        1.32725961      -1.76063117      -0.11863939
O        0.91030585       0.40426215       0.35265666
H       -0.21800049       0.22456672       0.33404084
C        3.16011670      -0.23895489       0.13052771
H        3.77525310      -1.11739898      -0.04561121
H        3.35857279       0.51055787      -0.63620202
H        3.41573067       0.20783972       1.09159618
N       -2.14803047       0.95283850      -0.45602960
O       -1.64268774       0.14600722       0.41939133
O       -3.36866715       1.00599372      -0.45877026
11
Properties=species:S:1:pos:R:3 charge=-1 charge_a=0 charge_b=-1 selection_a=1-8 selection_b=9-11 scaling=1.25 benchmark_Eint=-34.161 benchmark_unit=kcal/mol group=OH-Oa pbc="F F F"
C        1.67957413      -0.61325255       0.10945675
O        1.32725961      -1.76063117      -0.11863939
O        0.91030585       0.40426215       0.35265666
H       -0.21800049       0.22456672       0.33404084
C        3.16011670      -0.23895489       0.13052771
H        3.77525310      -1.11739898      -0.04561121
H        3.35857279       0.51055787      -0.63620202
H        3.41573067       0.20783972       1.09159618
N       -2.34230600       0.94212584      -0.44439090
O       -1.83696327       0.13529456       0.43103004
O       -3.56294268       0.99528106      -0.44713155
11
Properties=species:S:1:pos:R:3 charge=-1 charge_a=0 charge_b=-1 selection_a=1-8 selection_b=9-11 scaling=1.5 benchmark_Eint=-25.692 benchmark_unit=kcal/mol group=OH-Oa pbc="F F F"
C        1.67957413      -0.61325255       0.10945675
O        1.32725961      -1.76063117      -0.11863939
O        0.91030585       0.40426215       0.35265666
H       -0.21800049       0.22456672       0.33404084
C        3.16011670      -0.23895489       0.13052771
H        3.77525310      -1.11739898      -0.04561121
H        3.35857279       0.51055787      -0.63620202
H        3.41573067       0.20783972       1.09159618
N       -2.66609856       0.92427141      -0.42499306
O       -2.16075582       0.11744013       0.45042787
O       -3.88673523       0.97742663      -0.42773371
11
Properties=species:S:1:pos:R:3 charge=-1 charge_a=0 charge_b=-1 selection_a=1-8 selection_b=9-11 scaling=2.0 benchmark_Eint=-14.051 benchmark_unit=kcal/mol group=OH-Oa pbc="F F F"
C        1.67957413      -0.61325255       0.10945675
O        1.32725961      -1.76063117      -0.11863939
O        0.91030585       0.40426215       0.35265666
H       -0.21800049       0.22456672       0.33404084
C        3.16011670      -0.23895489       0.13052771
H        3.77525310      -1.11739898      -0.04561121
H        3.35857279       0.51055787      -0.63620202
H        3.41573067       0.20783972       1.09159618
N       -3.31368367       0.88856255      -0.38619738
O       -2.80834093       0.08173127       0.48922355
O       -4.53432035       0.94171776      -0.38893804
13
Properties=species:S:1:pos:R:3 charge=-1 charge_a=0 charge_b=-1 selection_a=1-6 selection_b=7-13 scaling=0.8 benchmark_Eint=-14.388 benchmark_unit=kcal/mol group=OH-Oa pbc="F F F"
O       -0.20429819      -0.73778552       2.21397770
H       -0.29798018      -0.78568474       1.22337093
C        0.71229533       0.29253055       2.49442615
H        1.72275781      -0.10061856       2.69088163
H        0.78044230       0.99949810       1.66375385
H        0.39393933       0.83233669       3.39475265
C       -0.30739150      -0.02966432      -2.33522663
C       -0.08818963       0.16419068      -0.81686829
O       -0.39636825      -0.83771362      -0.11059013
O        0.35974806       1.26131436      -0.43449103
H       -1.36176340      -0.23825073      -2.52627375
H        0.25851669      -0.89721511      -2.67930362
H       -0.00314395       0.85302059      -2.89547280
13
Properties=species:S:1:pos:R:3 charge=-1 charge_a=0 charge_b=-1 selection_a=1-6 selection_b=7-13 scaling=0.85 benchmark_Eint=-17.931 benchmark_unit=kcal/mol group=OH-Oa pbc="F F F"
O       -0.20429819      -0.73778552       2.21397770
H       -0.29798018      -0.78568474       1.22337093
C        0.71229533       0.29253055       2.49442615
H        1.72275781      -0.10061856       2.69088163
H        0.78044230       0.99949810       1.66375385
H        0.39393933       0.83233669       3.39475265
C       -0.31354075      -0.03291613      -2.41859920
C       -0.09433888       0.16093887      -0.90024086
O       -0.40251750      -0.84096542      -0.19396269
O        0.35359880       1.25806255      -0.51786360
H       -1.36791265      -0.24150254      -2.60964631
H        0.25236743      -0.90046691      -2.76267619
H       -0.00929320       0.84976878      -2.97884537
13
Properties=species:S:1:pos:R:3 charge=-1 charge_a=0 charge_b=-1 selection_a=1-6 selection_b=7-13 scaling=0.9 benchmark_Eint=-19.968 benchmark_unit=kcal/mol group=OH-Oa pbc="F F F"
O       -0.20429819      -0.73778552       2.21397770
H       -0.29798018      -0.78568474       1.22337093
C        0.71229533       0.29253055       2.49442615
H        1.72275781      -0.10061856       2.69088163
H        0.78044230       0.99949810       1.66375385
H        0.39393933       0.83233669       3.39475265
C       -0.31969000      -0.03616793      -2.50197176
C       -0.10048814       0.15768707      -0.98361342
O       -0.40866676      -0.84421723      -0.27733526
O        0.34744955       1.25481075      -0.60123616
H       -1.37406191      -0.24475434      -2.69301888
H        0.24621818      -0.90371872      -2.84604875
H       -0.01544246       0.84651698      -3.06221793
13
Properties=species:S:1:pos:R:3 charge=-1 charge_a=0 charge_b=-1 selection_a=1-6 selection_b=7-13 scaling=0.95 benchmark_Eint=-20.959 benchmark_unit=kcal/mol group=OH-Oa pbc="F F F"
O       -0.20429819      -0.73778552       2.21397770
H       -0.29798018      -0.78568474       1.22337093
C        0.71229533       0.29253055       2.49442615
H        1.72275781      -0.10061856       2.69088163
H        0.78044230       0.99949810       1.66375385
H        0.39393933       0.83233669       3.39475265
C       -0.32583926      -0.03941974      -2.58534433
C       -0.10663739       0.15443526      -1.06698599
O       -0.41481601      -0.84746903      -0.36070782
O        0.34130029       1.25155894      -0.68460873
H       -1.38021116      -0.24800615      -2.77639145
H        0.24006892      -0.90697052      -2.92942132
H       -0.02159171       0.84326518      -3.14559050
13
Properties=species:S:1:pos:R:3 charge=-1 charge_a=0 charge_b=-1 selection_a=1-6 selection_b=7-13 scaling=1.0 benchmark_Eint=-21.227 benchmark_unit=kcal/mol group=OH-Oa pbc="F F F"
O       -0.20429819      -0.73778552       2.21397770
H       -0.29798018      -0.78568474       1.22337093
C        0.71229533       0.29253055       2.49442615
H        1.72275781      -0.10061856       2.69088163
H        0.78044230       0.99949810       1.66375385
H        0.39393933       0.83233669       3.39475265
C       -0.33198851      -0.04267154      -2.66871690
C       -0.11278664       0.15118346      -1.15035856
O       -0.42096526      -0.85072083      -0.44408039
O        0.33515104       1.24830714      -0.76798129
H       -1.38636042      -0.25125795      -2.85976401
H        0.23391967      -0.91022233      -3.01279388
H       -0.02774096       0.84001337      -3.22896307
13
Properties=species:S:1:pos:R:3 charge=-1 charge_a=0 charge_b=-1 selection_a=1-6 selection_b=7-13 scaling=1.05 benchmark_Eint=-21.006 benchmark_unit=kcal/mol group=OH-Oa pbc="F F F"
O       -0.20429819      -0.73778552       2.21397770
H       -0.29798018      -0.78568474       1.22337093
C        0.71229533       0.29253055       2.49442615
H        1.72275781      -0.10061856       2.69088163
H        0.78044230       0.99949810       1.66375385
H        0.39393933       0.83233669       3.39475265
C       -0.33813777      -0.04592335      -2.75208946
C       -0.11893590       0.14793165      -1.23373112
O       -0.42711452      -0.85397264      -0.52745296
O        0.32900179       1.24505533      -0.85135386
H       -1.39250967      -0.25450976      -2.94313658
H        0.22777042      -0.91347413      -3.09616645
H       -0.03389022       0.83676157      -3.31233563
13
Properties=species:S:1:pos:R:3 charge=-1 charge_a=0 charge_b=-1 selection_a=1-6 selection_b=7-13 scaling=1.1 benchmark_Eint=-20.461 benchmark_unit=kcal/mol group=OH-Oa pbc="F F F"
O       -0.20429819      -0.73778552       2.21397770
H       -0.29798018      -0.78568474       1.22337093
C        0.71229533       0.29253055       2.49442615
H        1.72275781      -0.10061856       2.69088163
H        0.78044230       0.99949810       1.66375385
H        0.39393933       0.83233669       3.39475265
C       -0.34428702      -0.04917515      -2.83546203
C       -0.12508515       0.14467985      -1.31710369
O       -0.43326377      -0.85722444      -0.61082552
O        0.32285253       1.24180353      -0.93472643
H       -1.39865893      -0.25776156      -3.02650914
H        0.22162116      -0.91672594      -3.17953902
H       -0.04003947       0.83350976      -3.39570820
13
Properties=species:S:1:pos:R:3 charge=-1 charge_a=0 charge_b=-1 selection_a=1-6 selection_b=7-13 scaling=1.25 benchmark_Eint=-17.92 benchmark_unit=kcal/mol group=OH-Oa pbc="F F F"
O       -0.20429819      -0.73778552       2.21397770
H       -0.29798018      -0.78568474       1.22337093
C        0.71229533       0.29253055       2.49442615
H        1.72275781      -0.10061856       2.69088163
H        0.78044230       0.99949810       1.66375385
H        0.39393933       0.83233669       3.39475265
C       -0.36273479      -0.05893056      -3.08557973
C       -0.14353292       0.13492443      -1.56722139
O       -0.45171154      -0.86697986      -0.86094322
O        0.30440477       1.23204811      -1.18484412
H       -1.41710669      -0.26751698      -3.27662684
H        0.20317340      -0.92648135      -3.42965672
H       -0.05848724       0.82375435      -3.64582590
13
Properties=species:S:1:pos:R:3 charge=-1 charge_a=0 charge_b=-1 selection_a=1-6 selection_b=7-13 scaling=1.5 benchmark_Eint=-13.424 benchmark_unit=kcal/mol group=OH-Oa pbc="F F F"
O       -0.20429819      -0.73778552       2.21397770
H       -0.29798018      -0.78568474       1.22337093
C        0.71229533       0.29253055       2.49442615
H        1.72275781      -0.10061856       2.69088163
H        0.78044230       0.99949810       1.66375385
H        0.39393933       0.83233669       3.39475265
C       -0.39348106      -0.07518959      -3.50244256
C       -0.17427919       0.11866541      -1.98408422
O       -0.48245781      -0.88323888      -1.27780605
O        0.27365850       1.21578909      -1.60170696
H       -1.44785296      -0.28377600      -3.69348967
H        0.17242712      -0.94274038      -3.84651955
H       -0.08923351       0.80749532      -4.06268873
13
Properties=species:S:1:pos:R:3 charge=-1 charge_a=0 charge_b=-1 selection_a=1-6 selection_b=7-13 scaling=2.0 benchmark_Eint=-7.645 benchmark_unit=kcal/mol group=OH-Oa pbc="F F F"
O       -0.20429819      -0.73778552       2.21397770
H       -0.29798018      -0.78568474       1.22337093
C        0.71229533       0.29253055       2.49442615
H        1.72275781      -0.10061856       2.69088163
H        0.78044230       0.99949810       1.66375385
H        0.39393933       0.83233669       3.39475265
C       -0.45497360      -0.10770764      -4.33616822
C       -0.23577173       0.08614736      -2.81780988
O       -0.54395035      -0.91575693      -2.11153172
O        0.21216595       1.18327104      -2.43543262
H       -1.50934550      -0.31629405      -4.52721534
H        0.11093458      -0.97525842      -4.68024521
H       -0.15072605       0.77497728      -4.89641439
20
Properties=species:S:1:pos:R:3 charge=-1 charge_a=0 charge_b=-1 selection_a=1-6 selection_b=7-20 scaling=0.8 benchmark_Eint=-12.678 benchmark_unit=kcal/mol group=OH-Oa pbc="F F F"
O       -0.41606591       1.26336466      -3.83767366
H       -0.38786938       1.17060274      -2.85127163
C        0.41605721       0.26151314      -4.37341799
H        0.00634276      -0.07212242      -5.33331621
H        1.43554995       0.63229594      -4.56266509
H        0.48964612      -0.59689058      -3.70145146
O       -0.31464028       1.01853442      -1.50186348
C       -0.01490777      -0.10104248      -1.00579964
O        0.28019467      -1.15387217      -1.59994646
C       -0.01728807      -0.15582683       0.52950707
C        0.30328807      -1.33860671       1.19252471
C        0.30383901      -1.39873080       2.58104381
C       -0.01842463      -0.26999716       3.32858672
C       -0.34009931       0.91564486       2.67517804
C       -0.33858844       0.96938802       1.28606257
H        0.54892450      -2.19901583       0.58675191
H        0.55500307      -2.32464608       3.08346351
H       -0.01895481      -0.31411477       4.41027431
H       -0.59195969       1.79753021       3.25103224
H       -0.58437698       1.87695948       0.75418314
20
Properties=species:S:1:pos:R:3 charge=-1 charge_a=0 charge_b=-1 selection_a=1-6 selection_b=7-20 scaling=0.85 benchmark_Eint=-16.075 benchmark_unit=kcal/mol group=OH-Oa pbc="F F F"
O       -0.41606591       1.26336466      -3.83767366
H       -0.38786938       1.17060274      -2.85127163
C        0.41605721       0.26151314      -4.37341799
H        0.00634276      -0.07212242      -5.33331621
H        1.43554995       0.63229594      -4.56266509
H        0.48964612      -0.59689058      -3.70145146
O       -0.31006346       1.00903015      -1.41752547
C       -0.01033095      -0.11054675      -0.92146163
O        0.28477149      -1.16337644      -1.51560845
C       -0.01271125      -0.16533110       0.61384508
C        0.30786489      -1.34811098       1.27686272
C        0.30841583      -1.40823507       2.66538182
C       -0.01384781      -0.27950143       3.41292473
C       -0.33552249       0.90614059       2.75951605
C       -0.33401162       0.95988375       1.37040058
H        0.55350132      -2.20852010       0.67108992
H        0.55957989      -2.33415035       3.16780152
H       -0.01437799      -0.32361903       4.49461232
H       -0.58738287       1.78802594       3.33537025
H       -0.57980016       1.86745521       0.83852115
20
Properties=species:S:1:pos:R:3 charge=-1 charge_a=0 charge_b=-1 selection_a=1-6 selection_b=7-20 scaling=0.9 benchmark_Eint=-18.03 benchmark_unit=kcal/mol group=OH-Oa pbc="F F F"
O       -0.41606591       1.26336466      -3.83767366
H       -0.38786938       1.17060274      -2.85127163
C        0.41605721       0.26151314      -4.37341799
H        0.00634276      -0.07212242      -5.33331621
H        1.43554995       0.63229594      -4.56266509
H        0.48964612      -0.59689058      -3.70145146
O       -0.30548664       0.99952588      -1.33318747
C       -0.00575413      -0.12005102      -0.83712362
O        0.28934831      -1.17288071      -1.43127044
C       -0.00813443      -0.17483537       0.69818309
C        0.31244171      -1.35761525       1.36120073
C        0.31299265      -1.41773934       2.74971983
C       -0.00927099      -0.28900570       3.49726274
C       -0.33094567       0.89663632       2.84385406
C       -0.32943480       0.95037948       1.45473859
H        0.55807814      -2.21802437       0.75542793
H        0.56415671      -2.34365462       3.25213953
H       -0.00980118      -0.33312330       4.57895033
H       -0.58280605       1.77852167       3.41970826
H       -0.57522334       1.85795094       0.92285916
20
Properties=species:S:1:pos:R:3 charge=-1 charge_a=0 charge_b=-1 selection_a=1-6 selection_b=7-20 scaling=0.95 benchmark_Eint=-18.984 benchmark_unit=kcal/mol group=OH-Oa pbc="F F F"
O       -0.41606591       1.26336466      -3.83767366
H       -0.38786938       1.17060274      -2.85127163
C        0.41605721       0.26151314      -4.37341799
H        0.00634276      -0.07212242      -5.33331621
H        1.43554995       0.63229594      -4.56266509
H        0.48964612      -0.59689058      -3.70145146
O       -0.30090982       0.99002161      -1.24884946
C       -0.00117731      -0.12955529      -0.75278561
O        0.29392513      -1.18238498      -1.34693243
C       -0.00355761      -0.18433964       0.78252109
C        0.31701852      -1.36711952       1.44553874
C        0.31756947      -1.42724361       2.83405784
C       -0.00469417      -0.29850997       3.58160074
C       -0.32636885       0.88713205       2.92819207
C       -0.32485798       0.94087521       1.53907659
H        0.56265496      -2.22752864       0.83976594
H        0.56873352      -2.35315889       3.33647754
H       -0.00522436      -0.34262757       4.66328834
H       -0.57822923       1.76901741       3.50404626
H       -0.57064652       1.84844667       1.00719717
20
Properties=species:S:1:pos:R:3 charge=-1 charge_a=0 charge_b=-1 selection_a=1-6 selection_b=7-20 scaling=1.0 benchmark_Eint=-19.248 benchmark_unit=kcal/mol group=OH-Oa pbc="F F F"
O       -0.41606591       1.26336466      -3.83767366
H       -0.38786938       1.17060274      -2.85127163
C        0.41605721       0.26151314      -4.37341799
H        0.00634276      -0.07212242      -5.33331621
H        1.43554995       0.63229594      -4.56266509
H        0.48964612      -0.59689058      -3.70145146
O       -0.29633300       0.98051734      -1.16451145
C        0.00339951      -0.13905956      -0.66844760
O        0.29850195      -1.19188925      -1.26259442
C        0.00101921      -0.19384391       0.86685910
C        0.32159534      -1.37662379       1.52987675
C        0.32214629      -1.43674788       2.91839585
C       -0.00011735      -0.30801424       3.66593875
C       -0.32179203       0.87762778       3.01253007
C       -0.32028116       0.93137094       1.62341460
H        0.56723177      -2.23703291       0.92410395
H        0.57331034      -2.36266316       3.42081555
H       -0.00064754      -0.35213184       4.74762635
H       -0.57365241       1.75951313       3.58838427
H       -0.56606970       1.83894240       1.09153517
20
Properties=species:S:1:pos:R:3 charge=-1 charge_a=0 charge_b=-1 selection_a=1-6 selection_b=7-20 scaling=1.05 benchmark_Eint=-19.049 benchmark_unit=kcal/mol group=OH-Oa pbc="F F F"
O       -0.41606591       1.26336466      -3.83767366
H       -0.38786938       1.17060274      -2.85127163
C        0.41605721       0.26151314      -4.37341799
H        0.00634276      -0.07212242      -5.33331621
H        1.43554995       0.63229594      -4.56266509
H        0.48964612      -0.59689058      -3.70145146
O       -0.29175618       0.97101307      -1.08017344
C        0.00797633      -0.14856383      -0.58410959
O        0.30307877      -1.20139352      -1.17825641
C        0.00559602      -0.20334818       0.95119711
C        0.32617216      -1.38612806       1.61421476
C        0.32672311      -1.44625215       3.00273386
C        0.00445947      -0.31751851       3.75027676
C       -0.31721521       0.86812351       3.09686808
C       -0.31570434       0.92186667       1.70775261
H        0.57180859      -2.24653718       1.00844196
H        0.57788716      -2.37216743       3.50515356
H        0.00392928      -0.36163611       4.83196436
H       -0.56907560       1.75000887       3.67272228
H       -0.56149288       1.82943813       1.17587318
20
Properties=species:S:1:pos:R:3 charge=-1 charge_a=0 charge_b=-1 selection_a=1-6 selection_b=7-20 scaling=1.1 benchmark_Eint=-18.545 benchmark_unit=kcal/mol group=OH-Oa pbc="F F F"
O       -0.41606591       1.26336466      -3.83767366
H       -0.38786938       1.17060274      -2.85127163
C        0.41605721       0.26151314      -4.37341799
H        0.00634276      -0.07212242      -5.33331621
H        1.43554995       0.63229594      -4.56266509
H        0.48964612      -0.59689058      -3.70145146
O       -0.28717937       0.96150880      -0.99583543
C        0.01255315      -0.15806809      -0.49977158
O        0.30765559      -1.21089779      -1.09391840
C        0.01017284      -0.21285245       1.03553512
C        0.33074898      -1.39563233       1.69855277
C        0.33129993      -1.45575642       3.08707186
C        0.00903629      -0.32702277       3.83461477
C       -0.31263839       0.85861924       3.18120609
C       -0.31112753       0.91236240       1.79209062
H        0.57638541      -2.25604145       1.09277997
H        0.58246398      -2.38167170       3.58949157
H        0.00850610      -0.37114038       4.91630237
H       -0.56449878       1.74050460       3.75706029
H       -0.55691606       1.81993386       1.26021119
20
Properties=species:S:1:pos:R:3 charge=-1 charge_a=0 charge_b=-1 selection_a=1-6 selection_b=7-20 scaling=1.25 benchmark_Eint=-16.188 benchmark_unit=kcal/mol group=OH-Oa pbc="F F F"
O       -0.41606591       1.26336466      -3.83767366
H       -0.38786938       1.17060274      -2.85127163
C        0.41605721       0.26151314      -4.37341799
H        0.00634276      -0.07212242      -5.33331621
H        1.43554995       0.63229594      -4.56266509
H        0.48964612      -0.59689058      -3.70145146
O       -0.27344891       0.93299599      -0.74282140
C        0.02628361      -0.18658090      -0.24675756
O        0.32138604      -1.23941060      -0.84090438
C        0.02390330      -0.24136526       1.28854915
C        0.34447944      -1.42414514       1.95156679
C        0.34503038      -1.48426923       3.34008589
C        0.02276675      -0.35553558       4.08762880
C       -0.29890794       0.83010643       3.43422012
C       -0.29739707       0.88384959       2.04510465
H        0.59011587      -2.28455426       1.34579399
H        0.59619444      -2.41018451       3.84250559
H        0.02223656      -0.39965319       5.16931639
H       -0.55076832       1.71199179       4.01007432
H       -0.54318561       1.79142105       1.51322522
20
Properties=species:S:1:pos:R:3 charge=-1 charge_a=0 charge_b=-1 selection_a=1-6 selection_b=7-20 scaling=1.5 benchmark_Eint=-12.056 benchmark_unit=kcal/mol group=OH-Oa pbc="F F F"
O       -0.41606591       1.26336466      -3.83767366
H       -0.38786938       1.17060274      -2.85127163
C        0.41605721       0.26151314      -4.37341799
H        0.00634276      -0.07212242      -5.33331621
H        1.43554995       0.63229594      -4.56266509
H        0.48964612      -0.59689058      -3.70145146
O       -0.25056481       0.88547464      -0.32113136
C        0.04916770      -0.23410225       0.17493249
O        0.34427014      -1.28693195      -0.41921433
C        0.04678739      -0.28888661       1.71023919
C        0.36736353      -1.47166649       2.37325684
C        0.36791448      -1.53179058       3.76177594
C        0.04565084      -0.40305693       4.50931884
C       -0.27602384       0.78258509       3.85591016
C       -0.27451297       0.83632824       2.46679469
H        0.61299996      -2.33207561       1.76748404
H        0.61907853      -2.45770585       4.26419564
H        0.04512065      -0.44717454       5.59100644
H       -0.52788423       1.66447044       4.43176436
H       -0.52030151       1.74389970       1.93491526
20
Properties=species:S:1:pos:R:3 charge=-1 charge_a=0 charge_b=-1 selection_a=1-6 selection_b=7-20 scaling=2.0 benchmark_Eint=-6.833 benchmark_unit=kcal/mol group=OH-Oa pbc="F F F"
O       -0.41606591       1.26336466      -3.83767366
H       -0.38786938       1.17060274      -2.85127163
C        0.41605721       0.26151314      -4.37341799
H        0.00634276      -0.07212242      -5.33331621
H        1.43554995       0.63229594      -4.56266509
H        0.48964612      -0.59689058      -3.70145146
O       -0.20479662       0.79043195       0.52224873
C        0.09493589      -0.32914495       1.01831258
O        0.39003833      -1.38197464       0.42416575
C        0.09255558      -0.38392931       2.55361928
C        0.41313172      -1.56670918       3.21663692
C        0.41368267      -1.62683327       4.60515603
C        0.09141903      -0.49809963       5.35269893
C       -0.23025565       0.68754239       4.69929025
C       -0.22874479       0.74128554       3.31017478
H        0.65876815      -2.42711830       2.61086413
H        0.66484672      -2.55274855       5.10757573
H        0.09088884      -0.54221724       6.43438653
H       -0.48211604       1.56942774       5.27514445
H       -0.47453332       1.64885701       2.77829535
10
Properties=species:S:1:pos:R:3 charge=-1 charge_a=0 charge_b=-1 selection_a=1-6 selection_b=7-10 scaling=0.8 benchmark_Eint=-10.574 benchmark_unit=kcal/mol group=OH-Oa pbc="F F F"
O       -1.49153705       1.45693272      -1.00529763
H       -1.15216682       0.80968312      -0.34479582
C       -0.77044819       1.26481857      -2.19830892
H       -0.92840557       2.13639968      -2.83995617
H        0.29966521       1.14882181      -2.01077668
H       -1.11035861       0.37715178      -2.75189254
N        0.49054145      -0.45106179       0.58461168
O       -0.74794763      -0.17086033       0.57786988
O        1.25155149       0.10132994      -0.23960181
O        0.92703970      -1.27319006       1.41129413
10
Properties=species:S:1:pos:R:3 charge=-1 charge_a=0 charge_b=-1 selection_a=1-6 selection_b=7-10 scaling=0.85 benchmark_Eint=-13.607 benchmark_unit=kcal/mol group=OH-Oa pbc="F F F"
O       -1.49153705       1.45693272      -1.00529763
H       -1.15216682       0.80968312      -0.34479582
C       -0.77044819       1.26481857      -2.19830892
H       -0.92840557       2.13639968      -2.83995617
H        0.29966521       1.14882181      -2.01077668
H       -1.11035861       0.37715178      -2.75189254
N        0.51580515      -0.51234576       0.64227828
O       -0.72268393      -0.23214430       0.63553648
O        1.27681519       0.04004597      -0.18193521
O        0.95230340      -1.33447402       1.46896074
10
Properties=species:S:1:pos:R:3 charge=-1 charge_a=0 charge_b=-1 selection_a=1-6 selection_b=7-10 scaling=0.9 benchmark_Eint=-15.34 benchmark_unit=kcal/mol group=OH-Oa pbc="F F F"
O       -1.49153705       1.45693272      -1.00529763
H       -1.15216682       0.80968312      -0.34479582
C       -0.77044819       1.26481857      -2.19830892
H       -0.92840557       2.13639968      -2.83995617
H        0.29966521       1.14882181      -2.01077668
H       -1.11035861       0.37715178      -2.75189254
N        0.54106885      -0.57362972       0.69994489
O       -0.69742023      -0.29342826       0.69320309
O        1.30207888      -0.02123799      -0.12426860
O        0.97756710      -1.39575799       1.52662734
10
Properties=species:S:1:pos:R:3 charge=-1 charge_a=0 charge_b=-1 selection_a=1-6 selection_b=7-10 scaling=0.95 benchmark_Eint=-16.174 benchmark_unit=kcal/mol group=OH-Oa pbc="F F F"
O       -1.49153705       1.45693272      -1.00529763
H       -1.15216682       0.80968312      -0.34479582
C       -0.77044819       1.26481857      -2.19830892
H       -0.92840557       2.13639968      -2.83995617
H        0.29966521       1.14882181      -2.01077668
H       -1.11035861       0.37715178      -2.75189254
N        0.56633255      -0.63491369       0.75761150
O       -0.67215653      -0.35471223       0.75086969
O        1.32734258      -0.08252196      -0.06660199
O        1.00283080      -1.45704195       1.58429395
10
Properties=species:S:1:pos:R:3 charge=-1 charge_a=0 charge_b=-1 selection_a=1-6 selection_b=7-10 scaling=1.0 benchmark_Eint=-16.397 benchmark_unit=kcal/mol group=OH-Oa pbc="F F F"
O       -1.49153705       1.45693272      -1.00529763
H       -1.15216682       0.80968312      -0.34479582
C       -0.77044819       1.26481857      -2.19830892
H       -0.92840557       2.13639968      -2.83995617
H        0.29966521       1.14882181      -2.01077668
H       -1.11035861       0.37715178      -2.75189254
N        0.59159624      -0.69619765       0.81527810
O       -0.64689283      -0.41599619       0.80853630
O        1.35260628      -0.14380592      -0.00893539
O        1.02809450      -1.51832592       1.64196055
10
Properties=species:S:1:pos:R:3 charge=-1 charge_a=0 charge_b=-1 selection_a=1-6 selection_b=7-10 scaling=1.05 benchmark_Eint=-16.211 benchmark_unit=kcal/mol group=OH-Oa pbc="F F F"
O       -1.49153705       1.45693272      -1.00529763
H       -1.15216682       0.80968312      -0.34479582
C       -0.77044819       1.26481857      -2.19830892
H       -0.92840557       2.13639968      -2.83995617
H        0.29966521       1.14882181      -2.01077668
H       -1.11035861       0.37715178      -2.75189254
N        0.61685994      -0.75748162       0.87294471
O       -0.62162913      -0.47728016       0.86620291
O        1.37786998      -0.20508989       0.04873122
O        1.05335819      -1.57960988       1.69962716
10
Properties=species:S:1:pos:R:3 charge=-1 charge_a=0 charge_b=-1 selection_a=1-6 selection_b=7-10 scaling=1.1 benchmark_Eint=-15.762 benchmark_unit=kcal/mol group=OH-Oa pbc="F F F"
O       -1.49153705       1.45693272      -1.00529763
H       -1.15216682       0.80968312      -0.34479582
C       -0.77044819       1.26481857      -2.19830892
H       -0.92840557       2.13639968      -2.83995617
H        0.29966521       1.14882181      -2.01077668
H       -1.11035861       0.37715178      -2.75189254
N        0.64212364      -0.81876559       0.93061131
O       -0.59636543      -0.53856412       0.92386951
O        1.40313368      -0.26637385       0.10639782
O        1.07862189      -1.64089385       1.75729377
10
Properties=species:S:1:pos:R:3 charge=-1 charge_a=0 charge_b=-1 selection_a=1-6 selection_b=7-10 scaling=1.25 benchmark_Eint=-13.702 benchmark_unit=kcal/mol group=OH-Oa pbc="F F F"
O       -1.49153705       1.45693272      -1.00529763
H       -1.15216682       0.80968312      -0.34479582
C       -0.77044819       1.26481857      -2.19830892
H       -0.92840557       2.13639968      -2.83995617
H        0.29966521       1.14882181      -2.01077668
H       -1.11035861       0.37715178      -2.75189254
N        0.71791474      -1.00261748       1.10361113
O       -0.52057433      -0.72241602       1.09686933
O        1.47892478      -0.45022575       0.27939764
O        1.15441299      -1.82474575       1.93029358
10
Properties=species:S:1:pos:R:3 charge=-1 charge_a=0 charge_b=-1 selection_a=1-6 selection_b=7-10 scaling=1.5 benchmark_Eint=-10.17 benchmark_unit=kcal/mol group=OH-Oa pbc="F F F"
O       -1.49153705       1.45693272      -1.00529763
H       -1.15216682       0.80968312      -0.34479582
C       -0.77044819       1.26481857      -2.19830892
H       -0.92840557       2.13639968      -2.83995617
H        0.29966521       1.14882181      -2.01077668
H       -1.11035861       0.37715178      -2.75189254
N        0.84423324      -1.30903731       1.39194416
O       -0.39425584      -1.02883585       1.38520236
O        1.60524328      -0.75664558       0.56773067
O        1.28073149      -2.13116557       2.21862661
10
Properties=species:S:1:pos:R:3 charge=-1 charge_a=0 charge_b=-1 selection_a=1-6 selection_b=7-10 scaling=2.0 benchmark_Eint=-5.796 benchmark_unit=kcal/mol group=OH-Oa pbc="F F F"
O       -1.49153705       1.45693272      -1.00529763
H       -1.15216682       0.80968312      -0.34479582
C       -0.77044819       1.26481857      -2.19830892
H       -0.92840557       2.13639968      -2.83995617
H        0.29966521       1.14882181      -2.01077668
H       -1.11035861       0.37715178      -2.75189254
N        1.09687023      -1.92187697       1.96861022
O       -0.14161884      -1.64167550       1.96186842
O        1.85788027      -1.36948523       1.14439673
O        1.53336848      -2.74400523       2.79529267
9
Properties=species:S:1:pos:R:3 charge=-1 charge_a=0 charge_b=-1 selection_a=1-6 selection_b=7-9 scaling=0.8 benchmark_Eint=-12.807 benchmark_unit=kcal/mol group=OH-Oa pbc="F F F"
O       -0.38519139       1.50493496      -1.02406402
H       -0.11985936       1.03860260      -0.18758775
C       -0.24954007       0.59079666      -2.08357385
H       -1.03485719       0.77546503      -2.82566238
H        0.71874665       0.69734151      -2.59788521
H       -0.33175181      -0.43961744      -1.72884656
N        0.23470426      -0.78677577       1.15667678
O        0.29454084       0.46770475       0.99913385
O       -0.17713695      -1.44722094       0.18486101
9
Properties=species:S:1:pos:R:3 charge=-1 charge_a=0 charge_b=-1 selection_a=1-6 selection_b=7-9 scaling=0.85 benchmark_Eint=-16.06 benchmark_unit=kcal/mol group=OH-Oa pbc="F F F"
O       -0.38519139       1.50493496      -1.02406402
H       -0.11985936       1.03860260      -0.18758775
C       -0.24954007       0.59079666      -2.08357385
H       -1.03485719       0.77546503      -2.82566238
H        0.71874665       0.69734151      -2.59788521
H       -0.33175181      -0.43961744      -1.72884656
N        0.26060427      -0.82245689       1.23084688
O        0.32044085       0.43202364       1.07330395
O       -0.15123694      -1.48290206       0.25903111
9
Properties=species:S:1:pos:R:3 charge=-1 charge_a=0 charge_b=-1 selection_a=1-6 selection_b=7-9 scaling=0.9 benchmark_Eint=-17.941 benchmark_unit=kcal/mol group=OH-Oa pbc="F F F"
O       -0.38519139       1.50493496      -1.02406402
H       -0.11985936       1.03860260      -0.18758775
C       -0.24954007       0.59079666      -2.08357385
H       -1.03485719       0.77546503      -2.82566238
H        0.71874665       0.69734151      -2.59788521
H       -0.33175181      -0.43961744      -1.72884656
N        0.28650429      -0.85813800       1.30501698
O        0.34634087       0.39634252       1.14747405
O       -0.12533693      -1.51858317       0.33320121
9
Properties=species:S:1:pos:R:3 charge=-1 charge_a=0 charge_b=-1 selection_a=1-6 selection_b=7-9 scaling=0.95 benchmark_Eint=-18.871 benchmark_unit=kcal/mol group=OH-Oa pbc="F F F"
O       -0.38519139       1.50493496      -1.02406402
H       -0.11985936       1.03860260      -0.18758775
C       -0.24954007       0.59079666      -2.08357385
H       -1.03485719       0.77546503      -2.82566238
H        0.71874665       0.69734151      -2.59788521
H       -0.33175181      -0.43961744      -1.72884656
N        0.31240430      -0.89381912       1.37918708
O        0.37224088       0.36066140       1.22164415
O       -0.09943692      -1.55426429       0.40737131
9
Properties=species:S:1:pos:R:3 charge=-1 charge_a=0 charge_b=-1 selection_a=1-6 selection_b=7-9 scaling=1.0 benchmark_Eint=-19.144 benchmark_unit=kcal/mol group=OH-Oa pbc="F F F"
O       -0.38519139       1.50493496      -1.02406402
H       -0.11985936       1.03860260      -0.18758775
C       -0.24954007       0.59079666      -2.08357385
H       -1.03485719       0.77546503      -2.82566238
H        0.71874665       0.69734151      -2.59788521
H       -0.33175181      -0.43961744      -1.72884656
N        0.33830431      -0.92950024       1.45335718
O        0.39814089       0.32498029       1.29581426
O       -0.07353690      -1.58994540       0.48154141
9
Properties=species:S:1:pos:R:3 charge=-1 charge_a=0 charge_b=-1 selection_a=1-6 selection_b=7-9 scaling=1.05 benchmark_Eint=-18.974 benchmark_unit=kcal/mol group=OH-Oa pbc="F F F"
O       -0.38519139       1.50493496      -1.02406402
H       -0.11985936       1.03860260      -0.18758775
C       -0.24954007       0.59079666      -2.08357385
H       -1.03485719       0.77546503      -2.82566238
H        0.71874665       0.69734151      -2.59788521
H       -0.33175181      -0.43961744      -1.72884656
N        0.36420432      -0.96518135       1.52752728
O        0.42404090       0.28929917       1.36998435
O       -0.04763689      -1.62562652       0.55571151
9
Properties=species:S:1:pos:R:3 charge=-1 charge_a=0 charge_b=-1 selection_a=1-6 selection_b=7-9 scaling=1.1 benchmark_Eint=-18.512 benchmark_unit=kcal/mol group=OH-Oa pbc="F F F"
O       -0.38519139       1.50493496      -1.02406402
H       -0.11985936       1.03860260      -0.18758775
C       -0.24954007       0.59079666      -2.08357385
H       -1.03485719       0.77546503      -2.82566238
H        0.71874665       0.69734151      -2.59788521
H       -0.33175181      -0.43961744      -1.72884656
N        0.39010434      -1.00086247       1.60169738
O        0.44994092       0.25361806       1.44415446
O       -0.02173688      -1.66130764       0.62988161
9
Properties=species:S:1:pos:R:3 charge=-1 charge_a=0 charge_b=-1 selection_a=1-6 selection_b=7-9 scaling=1.25 benchmark_Eint=-16.296 benchmark_unit=kcal/mol group=OH-Oa pbc="F F F"
O       -0.38519139       1.50493496      -1.02406402
H       -0.11985936       1.03860260      -0.18758775
C       -0.24954007       0.59079666      -2.08357385
H       -1.03485719       0.77546503      -2.82566238
H        0.71874665       0.69734151      -2.59788521
H       -0.33175181      -0.43961744      -1.72884656
N        0.46780437      -1.10790581       1.82420768
O        0.52764095       0.14657471       1.66666476
O        0.05596316      -1.76835098       0.85239191
9
Properties=species:S:1:pos:R:3 charge=-1 charge_a=0 charge_b=-1 selection_a=1-6 selection_b=7-9 scaling=1.5 benchmark_Eint=-12.315 benchmark_unit=kcal/mol group=OH-Oa pbc="F F F"
O       -0.38519139       1.50493496      -1.02406402
H       -0.11985936       1.03860260      -0.18758775
C       -0.24954007       0.59079666      -2.08357385
H       -1.03485719       0.77546503      -2.82566238
H        0.71874665       0.69734151      -2.59788521
H       -0.33175181      -0.43961744      -1.72884656
N        0.59730443      -1.28631139       2.19505819
O        0.65714101      -0.03183087       2.03751526
O        0.18546322      -1.94675656       1.22324241
9
Properties=species:S:1:pos:R:3 charge=-1 charge_a=0 charge_b=-1 selection_a=1-6 selection_b=7-9 scaling=2.0 benchmark_Eint=-7.069 benchmark_unit=kcal/mol group=OH-Oa pbc="F F F"
O       -0.38519139       1.50493496      -1.02406402
H       -0.11985936       1.03860260      -0.18758775
C       -0.24954007       0.59079666      -2.08357385
H       -1.03485719       0.77546503      -2.82566238
H        0.71874665       0.69734151      -2.59788521
H       -0.33175181      -0.43961744      -1.72884656
N        0.85630456      -1.64312255       2.93675919
O        0.91614114      -0.38864203       2.77921626
O        0.44446334      -2.30356772       1.96494341
20
Properties=species:S:1:pos:R:3 charge=-1 charge_a=0 charge_b=-1 selection_a=1-13 selection_b=14-20 scaling=0.8 benchmark_Eint=-23.628 benchmark_unit=kcal/mol group=OH-Oa pbc="F F F"
H        2.33365313      -2.56591804      -0.10784547
H        3.47032442       0.60150691      -2.78088175
H        3.91059064      -1.62373288      -1.76822452
H       -0.13550935       0.91291716      -0.44722210
H       -0.63081248      -0.88204242       0.96419167
H        1.43562637       1.85384384      -2.10275161
C        2.78551959       0.18414230      -2.05497941
C        3.02852989      -1.06203584      -1.48538920
C        2.15060218      -1.59779628      -0.55434821
C        0.99901629      -0.89431156      -0.16738770
C        0.75229580       0.36413896      -0.74167766
C        1.64224349       0.88242627      -1.67073915
O        0.18872860      -1.45364819       0.73035180
C       -3.50215581       1.03305672       1.83330513
C       -2.18527985       0.72574054       1.09583710
O       -1.66664184      -0.39219685       1.39796482
O       -1.75312835       1.56867815       0.29276055
H       -4.23275759       0.25241437       1.61576063
H       -3.90089885       2.00146125       1.53793835
H       -3.32887171       1.01934232       2.91046198
20
Properties=species:S:1:pos:R:3 charge=-1 charge_a=0 charge_b=-1 selection_a=1-13 selection_b=14-20 scaling=0.85 benchmark_Eint=-28.244 benchmark_unit=kcal/mol group=OH-Oa pbc="F F F"
H        2.33365313      -2.56591804      -0.10784547
H        3.47032442       0.60150691      -2.78088175
H        3.91059064      -1.62373288      -1.76822452
H       -0.13550935       0.91291716      -0.44722210
H       -0.63081248      -0.88204242       0.96419167
H        1.43562637       1.85384384      -2.10275161
C        2.78551959       0.18414230      -2.05497941
C        3.02852989      -1.06203584      -1.48538920
C        2.15060218      -1.59779628      -0.55434821
C        0.99901629      -0.89431156      -0.16738770
C        0.75229580       0.36413896      -0.74167766
C        1.64224349       0.88242627      -1.67073915
O        0.18872860      -1.45364819       0.73035180
C       -3.56689515       1.06367207       1.86041595
C       -2.25001918       0.75635589       1.12294792
O       -1.73138118      -0.36158150       1.42507565
O       -1.81786769       1.59929349       0.31987137
H       -4.29749693       0.28302971       1.64287145
H       -3.96563819       2.03207659       1.56504918
H       -3.39361105       1.04995766       2.93757280
20
Properties=species:S:1:pos:R:3 charge=-1 charge_a=0 charge_b=-1 selection_a=1-13 selection_b=14-20 scaling=0.9 benchmark_Eint=-30.91 benchmark_unit=kcal/mol group=OH-Oa pbc="F F F"
H        2.33365313      -2.56591804      -0.10784547
H        3.47032442       0.60150691      -2.78088175
H        3.91059064      -1.62373288      -1.76822452
H       -0.13550935       0.91291716      -0.44722210
H       -0.63081248      -0.88204242       0.96419167
H        1.43562637       1.85384384      -2.10275161
C        2.78551959       0.18414230      -2.05497941
C        3.02852989      -1.06203584      -1.48538920
C        2.15060218      -1.59779628      -0.55434821
C        0.99901629      -0.89431156      -0.16738770
C        0.75229580       0.36413896      -0.74167766
C        1.64224349       0.88242627      -1.67073915
O        0.18872860      -1.45364819       0.73035180
C       -3.63163448       1.09428742       1.88752677
C       -2.31475852       0.78697124       1.15005874
O       -1.79612051      -0.33096615       1.45218647
O       -1.88260702       1.62990884       0.34698220
H       -4.36223626       0.31364506       1.66998227
H       -4.03037752       2.06269194       1.59216000
H       -3.45835038       1.08057301       2.96468362
20
Properties=species:S:1:pos:R:3 charge=-1 charge_a=0 charge_b=-1 selection_a=1-13 selection_b=14-20 scaling=0.95 benchmark_Eint=-32.212 benchmark_unit=kcal/mol group=OH-Oa pbc="F F F"
H        2.33365313      -2.56591804      -0.10784547
H        3.47032442       0.60150691      -2.78088175
H        3.91059064      -1.62373288      -1.76822452
H       -0.13550935       0.91291716      -0.44722210
H       -0.63081248      -0.88204242       0.96419167
H        1.43562637       1.85384384      -2.10275161
C        2.78551959       0.18414230      -2.05497941
C        3.02852989      -1.06203584      -1.48538920
C        2.15060218      -1.59779628      -0.55434821
C        0.99901629      -0.89431156      -0.16738770
C        0.75229580       0.36413896      -0.74167766
C        1.64224349       0.88242627      -1.67073915
O        0.18872860      -1.45364819       0.73035180
C       -3.69637382       1.12490277       1.91463759
C       -2.37949785       0.81758659       1.17716956
O       -1.86085985      -0.30035080       1.47929729
O       -1.94734636       1.66052419       0.37409302
H       -4.42697560       0.34426041       1.69709310
H       -4.09511686       2.09330729       1.61927082
H       -3.52308972       1.11118836       2.99179445
20
Properties=species:S:1:pos:R:3 charge=-1 charge_a=0 charge_b=-1 selection_a=1-13 selection_b=14-20 scaling=1.0 benchmark_Eint=-32.564 benchmark_unit=kcal/mol group=OH-Oa pbc="F F F"
H        2.33365313      -2.56591804      -0.10784547
H        3.47032442       0.60150691      -2.78088175
H        3.91059064      -1.62373288      -1.76822452
H       -0.13550935       0.91291716      -0.44722210
H       -0.63081248      -0.88204242       0.96419167
H        1.43562637       1.85384384      -2.10275161
C        2.78551959       0.18414230      -2.05497941
C        3.02852989      -1.06203584      -1.48538920
C        2.15060218      -1.59779628      -0.55434821
C        0.99901629      -0.89431156      -0.16738770
C        0.75229580       0.36413896      -0.74167766
C        1.64224349       0.88242627      -1.67073915
O        0.18872860      -1.45364819       0.73035180
C       -3.76111315       1.15551811       1.94174841
C       -2.44423719       0.84820193       1.20428038
O       -1.92559918      -0.26973546       1.50640811
O       -2.01208569       1.69113954       0.40120384
H       -4.49171493       0.37487576       1.72420392
H       -4.15985619       2.12392264       1.64638164
H       -3.58782905       1.14180371       3.01890527
20
Properties=species:S:1:pos:R:3 charge=-1 charge_a=0 charge_b=-1 selection_a=1-13 selection_b=14-20 scaling=1.05 benchmark_Eint=-32.262 benchmark_unit=kcal/mol group=OH-Oa pbc="F F F"
H        2.33365313      -2.56591804      -0.10784547
H        3.47032442       0.60150691      -2.78088175
H        3.91059064      -1.62373288      -1.76822452
H       -0.13550935       0.91291716      -0.44722210
H       -0.63081248      -0.88204242       0.96419167
H        1.43562637       1.85384384      -2.10275161
C        2.78551959       0.18414230      -2.05497941
C        3.02852989      -1.06203584      -1.48538920
C        2.15060218      -1.59779628      -0.55434821
C        0.99901629      -0.89431156      -0.16738770
C        0.75229580       0.36413896      -0.74167766
C        1.64224349       0.88242627      -1.67073915
O        0.18872860      -1.45364819       0.73035180
C       -3.82585249       1.18613346       1.96885924
C       -2.50897653       0.87881728       1.23139121
O       -1.99033852      -0.23912011       1.53351894
O       -2.07682503       1.72175489       0.42831466
H       -4.55645427       0.40549111       1.75131474
H       -4.22459553       2.15453799       1.67349247
H       -3.65256839       1.17241906       3.04601609
20
Properties=species:S:1:pos:R:3 charge=-1 charge_a=0 charge_b=-1 selection_a=1-13 selection_b=14-20 scaling=1.1 benchmark_Eint=-31.516 benchmark_unit=kcal/mol group=OH-Oa pbc="F F F"
H        2.33365313      -2.56591804      -0.10784547
H        3.47032442       0.60150691      -2.78088175
H        3.91059064      -1.62373288      -1.76822452
H       -0.13550935       0.91291716      -0.44722210
H       -0.63081248      -0.88204242       0.96419167
H        1.43562637       1.85384384      -2.10275161
C        2.78551959       0.18414230      -2.05497941
C        3.02852989      -1.06203584      -1.48538920
C        2.15060218      -1.59779628      -0.55434821
C        0.99901629      -0.89431156      -0.16738770
C        0.75229580       0.36413896      -0.74167766
C        1.64224349       0.88242627      -1.67073915
O        0.18872860      -1.45364819       0.73035180
C       -3.89059182       1.21674881       1.99597006
C       -2.57371586       0.90943263       1.25850203
O       -2.05507785      -0.20850476       1.56062976
O       -2.14156436       1.75237024       0.45542549
H       -4.62119360       0.43610646       1.77842556
H       -4.28933486       2.18515334       1.70060329
H       -3.71730772       1.20303441       3.07312691
20
Properties=species:S:1:pos:R:3 charge=-1 charge_a=0 charge_b=-1 selection_a=1-13 selection_b=14-20 scaling=1.25 benchmark_Eint=-27.962 benchmark_unit=kcal/mol group=OH-Oa pbc="F F F"
H        2.33365313      -2.56591804      -0.10784547
H        3.47032442       0.60150691      -2.78088175
H        3.91059064      -1.62373288      -1.76822452
H       -0.13550935       0.91291716      -0.44722210
H       -0.63081248      -0.88204242       0.96419167
H        1.43562637       1.85384384      -2.10275161
C        2.78551959       0.18414230      -2.05497941
C        3.02852989      -1.06203584      -1.48538920
C        2.15060218      -1.59779628      -0.55434821
C        0.99901629      -0.89431156      -0.16738770
C        0.75229580       0.36413896      -0.74167766
C        1.64224349       0.88242627      -1.67073915
O        0.18872860      -1.45364819       0.73035180
C       -4.08480983       1.30859485       2.07730253
C       -2.76793387       1.00127868       1.33983450
O       -2.24929586      -0.11665871       1.64196222
O       -2.33578237       1.84421628       0.53675795
H       -4.81541161       0.52795250       1.85975803
H       -4.48355287       2.27699938       1.78193575
H       -3.91152573       1.29488045       3.15445938
20
Properties=species:S:1:pos:R:3 charge=-1 charge_a=0 charge_b=-1 selection_a=1-13 selection_b=14-20 scaling=1.5 benchmark_Eint=-21.416 benchmark_unit=kcal/mol group=OH-Oa pbc="F F F"
H        2.33365313      -2.56591804      -0.10784547
H        3.47032442       0.60150691      -2.78088175
H        3.91059064      -1.62373288      -1.76822452
H       -0.13550935       0.91291716      -0.44722210
H       -0.63081248      -0.88204242       0.96419167
H        1.43562637       1.85384384      -2.10275161
C        2.78551959       0.18414230      -2.05497941
C        3.02852989      -1.06203584      -1.48538920
C        2.15060218      -1.59779628      -0.55434821
C        0.99901629      -0.89431156      -0.16738770
C        0.75229580       0.36413896      -0.74167766
C        1.64224349       0.88242627      -1.67073915
O        0.18872860      -1.45364819       0.73035180
C       -4.40850651       1.46167160       2.21285664
C       -3.09163054       1.15435542       1.47538861
O       -2.57299254       0.03641803       1.77751634
O       -2.65947904       1.99729302       0.67231206
H       -5.13910828       0.68102924       1.99531214
H       -4.80724954       2.43007612       1.91748987
H       -4.23522241       1.44795719       3.29001349
20
Properties=species:S:1:pos:R:3 charge=-1 charge_a=0 charge_b=-1 selection_a=1-13 selection_b=14-20 scaling=2.0 benchmark_Eint=-12.473 benchmark_unit=kcal/mol group=OH-Oa pbc="F F F"
H        2.33365313      -2.56591804      -0.10784547
H        3.47032442       0.60150691      -2.78088175
H        3.91059064      -1.62373288      -1.76822452
H       -0.13550935       0.91291716      -0.44722210
H       -0.63081248      -0.88204242       0.96419167
H        1.43562637       1.85384384      -2.10275161
C        2.78551959       0.18414230      -2.05497941
C        3.02852989      -1.06203584      -1.48538920
C        2.15060218      -1.59779628      -0.55434821
C        0.99901629      -0.89431156      -0.16738770
C        0.75229580       0.36413896      -0.74167766
C        1.64224349       0.88242627      -1.67073915
O        0.18872860      -1.45364819       0.73035180
C       -5.05589986       1.76782508       2.48396486
C       -3.73902389       1.46050890       1.74649683
O       -3.22038589       0.34257151       2.04862456
O       -3.30687240       2.30344651       0.94342029
H       -5.78650164       0.98718273       2.26642036
H       -5.45464290       2.73622961       2.18859809
H       -4.88261576       1.75411068       3.56112171
27
Properties=species:S:1:pos:R:3 charge=-1 charge_a=0 charge_b=-1 selection_a=1-13 selection_b=14-27 scaling=0.8 benchmark_Eint=-20.077 benchmark_unit=kcal/mol group=OH-Oa pbc="F F F"
H        2.96525133      -2.55350833      -1.12493683
H        5.98858399       0.43307198      -1.76208093
H        5.24037615      -1.93111723      -1.87823703
H        2.15606074       1.51717119      -0.12979130
H        0.63745303      -0.15758814       0.13526220
H        4.43008442       2.15180751      -0.88287124
C        4.99619793       0.15593004      -1.43422037
C        4.57279989      -1.16813204      -1.49778970
C        3.30014340      -1.52636824      -1.07848850
C        2.41500510      -0.55973535      -0.58111855
C        2.84167592       0.77630894      -0.51629163
C        4.11749625       1.11682990      -0.94010937
O        1.19995325      -0.94757375      -0.18667998
O        0.04762909       0.84491741       0.48558259
C       -1.11530474       1.13680296       0.90380499
O       -1.44218401       2.16250587       1.51304047
C       -2.22846636       0.12100941       0.61533983
C       -3.48428239       0.30647952       1.19301454
C       -4.51946007      -0.58773284       0.95492670
C       -4.31597051      -1.68350944       0.12143981
C       -3.07011593      -1.87387524      -0.46485731
C       -2.03373125      -0.98006284      -0.21669164
H       -3.61815520       1.17151403       1.82601822
H       -5.48668103      -0.43141167       1.41576786
H       -5.12108443      -2.38144244      -0.06918723
H       -2.90245133      -2.72232311      -1.11571489
H       -1.06741602      -1.13641320      -0.67003529
27
Properties=species:S:1:pos:R:3 charge=-1 charge_a=0 charge_b=-1 selection_a=1-13 selection_b=14-27 scaling=0.85 benchmark_Eint=-24.168 benchmark_unit=kcal/mol group=OH-Oa pbc="F F F"
H        2.96525133      -2.55350833      -1.12493683
H        5.98858399       0.43307198      -1.76208093
H        5.24037615      -1.93111723      -1.87823703
H        2.15606074       1.51717119      -0.12979130
H        0.63745303      -0.15758814       0.13526220
H        4.43008442       2.15180751      -0.88287124
C        4.99619793       0.15593004      -1.43422037
C        4.57279989      -1.16813204      -1.49778970
C        3.30014340      -1.52636824      -1.07848850
C        2.41500510      -0.55973535      -0.58111855
C        2.84167592       0.77630894      -0.51629163
C        4.11749625       1.11682990      -0.94010937
O        1.19995325      -0.94757375      -0.18667998
O        0.01076510       0.90757400       0.50747762
C       -1.15216874       1.19945956       0.92570002
O       -1.47904801       2.22516247       1.53493550
C       -2.26533035       0.18366601       0.63723486
C       -3.52114639       0.36913612       1.21490957
C       -4.55632407      -0.52507624       0.97682172
C       -4.35283451      -1.62085285       0.14333483
C       -3.10697993      -1.81121864      -0.44296228
C       -2.07059525      -0.91740624      -0.19479661
H       -3.65501920       1.23417063       1.84791325
H       -5.52354503      -0.36875507       1.43766289
H       -5.15794842      -2.31878585      -0.04729220
H       -2.93931532      -2.65966651      -1.09381987
H       -1.10428001      -1.07375660      -0.64814027
27
Properties=species:S:1:pos:R:3 charge=-1 charge_a=0 charge_b=-1 selection_a=1-13 selection_b=14-27 scaling=0.9 benchmark_Eint=-26.53 benchmark_unit=kcal/mol group=OH-Oa pbc="F F F"
H        2.96525133      -2.55350833      -1.12493683
H        5.98858399       0.43307198      -1.76208093
H        5.24037615      -1.93111723      -1.87823703
H        2.15606074       1.51717119      -0.12979130
H        0.63745303      -0.15758814       0.13526220
H        4.43008442       2.15180751      -0.88287124
C        4.99619793       0.15593004      -1.43422037
C        4.57279989      -1.16813204      -1.49778970
C        3.30014340      -1.52636824      -1.07848850
C        2.41500510      -0.55973535      -0.58111855
C        2.84167592       0.77630894      -0.51629163
C        4.11749625       1.11682990      -0.94010937
O        1.19995325      -0.94757375      -0.18667998
O       -0.02609890       0.97023060       0.52937264
C       -1.18903273       1.26211616       0.94759504
O       -1.51591200       2.28781907       1.55683052
C       -2.30219435       0.24632260       0.65912988
C       -3.55801039       0.43179272       1.23680459
C       -4.59318807      -0.46241964       0.99871675
C       -4.38969851      -1.55819625       0.16522986
C       -3.14384392      -1.74856204      -0.42106726
C       -2.10745925      -0.85474965      -0.17290159
H       -3.69188320       1.29682723       1.86980827
H       -5.56040903      -0.30609847       1.45955791
H       -5.19481242      -2.25612925      -0.02539718
H       -2.97617932      -2.59700991      -1.07192485
H       -1.14114401      -1.01110000      -0.62624524
27
Properties=species:S:1:pos:R:3 charge=-1 charge_a=0 charge_b=-1 selection_a=1-13 selection_b=14-27 scaling=0.95 benchmark_Eint=-27.691 benchmark_unit=kcal/mol group=OH-Oa pbc="F F F"
H        2.96525133      -2.55350833      -1.12493683
H        5.98858399       0.43307198      -1.76208093
H        5.24037615      -1.93111723      -1.87823703
H        2.15606074       1.51717119      -0.12979130
H        0.63745303      -0.15758814       0.13526220
H        4.43008442       2.15180751      -0.88287124
C        4.99619793       0.15593004      -1.43422037
C        4.57279989      -1.16813204      -1.49778970
C        3.30014340      -1.52636824      -1.07848850
C        2.41500510      -0.55973535      -0.58111855
C        2.84167592       0.77630894      -0.51629163
C        4.11749625       1.11682990      -0.94010937
O        1.19995325      -0.94757375      -0.18667998
O       -0.06296290       1.03288720       0.55126767
C       -1.22589673       1.32477275       0.96949007
O       -1.55277600       2.35047566       1.57872555
C       -2.33905835       0.30897920       0.68102491
C       -3.59487438       0.49444931       1.25869962
C       -4.63005206      -0.39976305       1.02061177
C       -4.42656250      -1.49553965       0.18712488
C       -3.18070792      -1.68590545      -0.39917223
C       -2.14432324      -0.79209305      -0.15100657
H       -3.72874719       1.35948382       1.89170330
H       -5.59727302      -0.24344188       1.48145293
H       -5.23167641      -2.19347265      -0.00350215
H       -3.01304332      -2.53435332      -1.05002982
H       -1.17800800      -0.94844341      -0.60435022
27
Properties=species:S:1:pos:R:3 charge=-1 charge_a=0 charge_b=-1 selection_a=1-13 selection_b=14-27 scaling=1.0 benchmark_Eint=-28.015 benchmark_unit=kcal/mol group=OH-Oa pbc="F F F"
H        2.96525133      -2.55350833      -1.12493683
H        5.98858399       0.43307198      -1.76208093
H        5.24037615      -1.93111723      -1.87823703
H        2.15606074       1.51717119      -0.12979130
H        0.63745303      -0.15758814       0.13526220
H        4.43008442       2.15180751      -0.88287124
C        4.99619793       0.15593004      -1.43422037
C        4.57279989      -1.16813204      -1.49778970
C        3.30014340      -1.52636824      -1.07848850
C        2.41500510      -0.55973535      -0.58111855
C        2.84167592       0.77630894      -0.51629163
C        4.11749625       1.11682990      -0.94010937
O        1.19995325      -0.94757375      -0.18667998
O       -0.09982689       1.09554379       0.57316269
C       -1.26276072       1.38742935       0.99138509
O       -1.58964000       2.41313226       1.60062057
C       -2.37592234       0.37163580       0.70291993
C       -3.63173838       0.55710591       1.28059464
C       -4.66691606      -0.33710645       1.04250679
C       -4.46342650      -1.43288306       0.20901991
C       -3.21757192      -1.62324885      -0.37727721
C       -2.18118724      -0.72943645      -0.12911154
H       -3.76561119       1.42214042       1.91359832
H       -5.63413702      -0.18078528       1.50334796
H       -5.26854041      -2.13081606       0.01839287
H       -3.04990731      -2.47169672      -1.02813480
H       -1.21487200      -0.88578681      -0.58245519
27
Properties=species:S:1:pos:R:3 charge=-1 charge_a=0 charge_b=-1 selection_a=1-13 selection_b=14-27 scaling=1.05 benchmark_Eint=-27.764 benchmark_unit=kcal/mol group=OH-Oa pbc="F F F"
H        2.96525133      -2.55350833      -1.12493683
H        5.98858399       0.43307198      -1.76208093
H        5.24037615      -1.93111723      -1.87823703
H        2.15606074       1.51717119      -0.12979130
H        0.63745303      -0.15758814       0.13526220
H        4.43008442       2.15180751      -0.88287124
C        4.99619793       0.15593004      -1.43422037
C        4.57279989      -1.16813204      -1.49778970
C        3.30014340      -1.52636824      -1.07848850
C        2.41500510      -0.55973535      -0.58111855
C        2.84167592       0.77630894      -0.51629163
C        4.11749625       1.11682990      -0.94010937
O        1.19995325      -0.94757375      -0.18667998
O       -0.13669089       1.15820039       0.59505771
C       -1.29962472       1.45008595       1.01328012
O       -1.62650399       2.47578886       1.62251560
C       -2.41278634       0.43429239       0.72481496
C       -3.66860237       0.61976251       1.30248967
C       -4.70378005      -0.27444986       1.06440182
C       -4.50029049      -1.37022646       0.23091493
C       -3.25443591      -1.56059225      -0.35538219
C       -2.21805123      -0.66677986      -0.10721652
H       -3.80247518       1.48479702       1.93549335
H       -5.67100101      -0.11812868       1.52524298
H       -5.30540441      -2.06815946       0.04028789
H       -3.08677131      -2.40904012      -1.00623977
H       -1.25173600      -0.82313021      -0.56056017
27
Properties=species:S:1:pos:R:3 charge=-1 charge_a=0 charge_b=-1 selection_a=1-13 selection_b=14-27 scaling=1.1 benchmark_Eint=-27.126 benchmark_unit=kcal/mol group=OH-Oa pbc="F F F"
H        2.96525133      -2.55350833      -1.12493683
H        5.98858399       0.43307198      -1.76208093
H        5.24037615      -1.93111723      -1.87823703
H        2.15606074       1.51717119      -0.12979130
H        0.63745303      -0.15758814       0.13526220
H        4.43008442       2.15180751      -0.88287124
C        4.99619793       0.15593004      -1.43422037
C        4.57279989      -1.16813204      -1.49778970
C        3.30014340      -1.52636824      -1.07848850
C        2.41500510      -0.55973535      -0.58111855
C        2.84167592       0.77630894      -0.51629163
C        4.11749625       1.11682990      -0.94010937
O        1.19995325      -0.94757375      -0.18667998
O       -0.17355489       1.22085699       0.61695274
C       -1.33648872       1.51274255       1.03517514
O       -1.66336799       2.53844545       1.64441062
C       -2.44965034       0.49694899       0.74670998
C       -3.70546637       0.68241910       1.32438469
C       -4.74064405      -0.21179326       1.08629684
C       -4.53715449      -1.30756986       0.25280996
C       -3.29129991      -1.49793566      -0.33348716
C       -2.25491523      -0.60412326      -0.08532149
H       -3.83933918       1.54745361       1.95738837
H       -5.70786501      -0.05547209       1.54713801
H       -5.34226840      -2.00550286       0.06218292
H       -3.12363531      -2.34638353      -0.98434475
H       -1.28859999      -0.76047362      -0.53866514
27
Properties=species:S:1:pos:R:3 charge=-1 charge_a=0 charge_b=-1 selection_a=1-13 selection_b=14-27 scaling=1.25 benchmark_Eint=-24.045 benchmark_unit=kcal/mol group=OH-Oa pbc="F F F"
H        2.96525133      -2.55350833      -1.12493683
H        5.98858399       0.43307198      -1.76208093
H        5.24037615      -1.93111723      -1.87823703
H        2.15606074       1.51717119      -0.12979130
H        0.63745303      -0.15758814       0.13526220
H        4.43008442       2.15180751      -0.88287124
C        4.99619793       0.15593004      -1.43422037
C        4.57279989      -1.16813204      -1.49778970
C        3.30014340      -1.52636824      -1.07848850
C        2.41500510      -0.55973535      -0.58111855
C        2.84167592       0.77630894      -0.51629163
C        4.11749625       1.11682990      -0.94010937
O        1.19995325      -0.94757375      -0.18667998
O       -0.28414688       1.40882678       0.68263781
C       -1.44708071       1.70071233       1.10086021
O       -1.77395998       2.72641524       1.71009569
C       -2.56024232       0.68491878       0.81239505
C       -3.81605836       0.87038889       1.39006976
C       -4.85123604      -0.02382347       1.15198192
C       -4.64774648      -1.11960007       0.31849503
C       -3.40189190      -1.30996587      -0.26780209
C       -2.36550722      -0.41615347      -0.01963642
H       -3.94993117       1.73542340       2.02307344
H       -5.81845700       0.13249770       1.61282308
H       -5.45286039      -1.81753307       0.12786799
H       -3.23422729      -2.15841374      -0.91865967
H       -1.39919198      -0.57250383      -0.47298007
27
Properties=species:S:1:pos:R:3 charge=-1 charge_a=0 charge_b=-1 selection_a=1-13 selection_b=14-27 scaling=1.5 benchmark_Eint=-18.34 benchmark_unit=kcal/mol group=OH-Oa pbc="F F F"
H        2.96525133      -2.55350833      -1.12493683
H        5.98858399       0.43307198      -1.76208093
H        5.24037615      -1.93111723      -1.87823703
H        2.15606074       1.51717119      -0.12979130
H        0.63745303      -0.15758814       0.13526220
H        4.43008442       2.15180751      -0.88287124
C        4.99619793       0.15593004      -1.43422037
C        4.57279989      -1.16813204      -1.49778970
C        3.30014340      -1.52636824      -1.07848850
C        2.41500510      -0.55973535      -0.58111855
C        2.84167592       0.77630894      -0.51629163
C        4.11749625       1.11682990      -0.94010937
O        1.19995325      -0.94757375      -0.18667998
O       -0.46846686       1.72210976       0.79211294
C       -1.63140069       2.01399532       1.21033534
O       -1.95827996       3.03969823       1.81957082
C       -2.74456231       0.99820176       0.92187018
C       -4.00037834       1.18367188       1.49954489
C       -5.03555602       0.28945951       1.26145704
C       -4.83206646      -0.80631709       0.42797015
C       -3.58621188      -0.99668288      -0.15832696
C       -2.54982720      -0.10287049       0.08983870
H       -4.13425115       2.04870639       2.13254857
H       -6.00277698       0.44578069       1.72229820
H       -5.63718037      -1.50425009       0.23734311
H       -3.41854728      -1.84513075      -0.80918455
H       -1.58351196      -0.25922084      -0.36350495
27
Properties=species:S:1:pos:R:3 charge=-1 charge_a=0 charge_b=-1 selection_a=1-13 selection_b=14-27 scaling=2.0 benchmark_Eint=-10.561 benchmark_unit=kcal/mol group=OH-Oa pbc="F F F"
H        2.96525133      -2.55350833      -1.12493683
H        5.98858399       0.43307198      -1.76208093
H        5.24037615      -1.93111723      -1.87823703
H        2.15606074       1.51717119      -0.12979130
H        0.63745303      -0.15758814       0.13526220
H        4.43008442       2.15180751      -0.88287124
C        4.99619793       0.15593004      -1.43422037
C        4.57279989      -1.16813204      -1.49778970
C        3.30014340      -1.52636824      -1.07848850
C        2.41500510      -0.55973535      -0.58111855
C        2.84167592       0.77630894      -0.51629163
C        4.11749625       1.11682990      -0.94010937
O        1.19995325      -0.94757375      -0.18667998
O       -0.83710682       2.34867573       1.01106318
C       -2.00004065       2.64056128       1.42928558
O       -2.32691992       3.66626419       2.03852106
C       -3.11320227       1.62476773       1.14082042
C       -4.36901830       1.81023784       1.71849513
C       -5.40419598       0.91602548       1.48040729
C       -5.20070642      -0.17975112       0.64692040
C       -3.95485184      -0.37011692       0.06062328
C       -2.91846716       0.52369548       0.30878895
H       -4.50289111       2.67527235       2.35149881
H       -6.37141694       1.07234665       1.94124845
H       -6.00582034      -0.87768412       0.45629336
H       -3.78718724      -1.21856479      -0.59023431
H       -1.95215193       0.36734512      -0.14455470
17
Properties=species:S:1:pos:R:3 charge=-1 charge_a=0 charge_b=-1 selection_a=1-13 selection_b=14-17 scaling=0.8 benchmark_Eint=-17.79 benchmark_unit=kcal/mol group=OH-Oa pbc="F F F"
H        1.59490071      -2.71382569      -1.46325085
H        4.25819217       0.65793637      -1.41125120
H        3.79660874      -1.71099965      -1.99369458
H        0.31132338       0.96914268       0.27515196
H       -1.06025420      -0.89165200       0.01275170
H        2.49560940       1.98968901      -0.28044823
C        3.29951210       0.21402800      -1.18053503
C        3.03736730      -1.11343381      -1.50482669
C        1.80767085      -1.68410274      -1.21096097
C        0.80743840      -0.93253336      -0.58030426
C        1.07204013       0.40274114      -0.24465665
C        2.30625714       0.95814451      -0.54879072
O       -0.36044970      -1.53024220      -0.31742605
N       -2.20547714       0.68748581       1.13153350
O       -2.16516654      -0.23861370       0.25537882
O       -3.29455486       1.20839529       1.40995170
O       -1.14721543       1.04985773       1.68648120
17
Properties=species:S:1:pos:R:3 charge=-1 charge_a=0 charge_b=-1 selection_a=1-13 selection_b=14-17 scaling=0.85 benchmark_Eint=-21.482 benchmark_unit=kcal/mol group=OH-Oa pbc="F F F"
H        1.59490071      -2.71382569      -1.46325085
H        4.25819217       0.65793637      -1.41125120
H        3.79660874      -1.71099965      -1.99369458
H        0.31132338       0.96914268       0.27515196
H       -1.06025420      -0.89165200       0.01275170
H        2.49560940       1.98968901      -0.28044823
C        3.29951210       0.21402800      -1.18053503
C        3.03736730      -1.11343381      -1.50482669
C        1.80767085      -1.68410274      -1.21096097
C        0.80743840      -0.93253336      -0.58030426
C        1.07204013       0.40274114      -0.24465665
C        2.30625714       0.95814451      -0.54879072
O       -0.36044970      -1.53024220      -0.31742605
N       -2.27453416       0.72830070       1.14669770
O       -2.23422356      -0.19779880       0.27054301
O       -3.36361188       1.24921018       1.42511589
O       -1.21627245       1.09067263       1.70164540
17
Properties=species:S:1:pos:R:3 charge=-1 charge_a=0 charge_b=-1 selection_a=1-13 selection_b=14-17 scaling=0.9 benchmark_Eint=-23.612 benchmark_unit=kcal/mol group=OH-Oa pbc="F F F"
H        1.59490071      -2.71382569      -1.46325085
H        4.25819217       0.65793637      -1.41125120
H        3.79660874      -1.71099965      -1.99369458
H        0.31132338       0.96914268       0.27515196
H       -1.06025420      -0.89165200       0.01275170
H        2.49560940       1.98968901      -0.28044823
C        3.29951210       0.21402800      -1.18053503
C        3.03736730      -1.11343381      -1.50482669
C        1.80767085      -1.68410274      -1.21096097
C        0.80743840      -0.93253336      -0.58030426
C        1.07204013       0.40274114      -0.24465665
C        2.30625714       0.95814451      -0.54879072
O       -0.36044970      -1.53024220      -0.31742605
N       -2.34359118       0.76911559       1.16186189
O       -2.30328058      -0.15698391       0.28570721
O       -3.43266890       1.29002508       1.44028009
O       -1.28532947       1.13148752       1.71680959
17
Properties=species:S:1:pos:R:3 charge=-1 charge_a=0 charge_b=-1 selection_a=1-13 selection_b=14-17 scaling=0.95 benchmark_Eint=-24.648 benchmark_unit=kcal/mol group=OH-Oa pbc="F F F"
H        1.59490071      -2.71382569      -1.46325085
H        4.25819217       0.65793637      -1.41125120
H        3.79660874      -1.71099965      -1.99369458
H        0.31132338       0.96914268       0.27515196
H       -1.06025420      -0.89165200       0.01275170
H        2.49560940       1.98968901      -0.28044823
C        3.29951210       0.21402800      -1.18053503
C        3.03736730      -1.11343381      -1.50482669
C        1.80767085      -1.68410274      -1.21096097
C        0.80743840      -0.93253336      -0.58030426
C        1.07204013       0.40274114      -0.24465665
C        2.30625714       0.95814451      -0.54879072
O       -0.36044970      -1.53024220      -0.31742605
N       -2.41264820       0.80993049       1.17702609
O       -2.37233760      -0.11616901       0.30087140
O       -3.50172592       1.33083997       1.45544428
O       -1.35438649       1.17230242       1.73197379
17
Properties=species:S:1:pos:R:3 charge=-1 charge_a=0 charge_b=-1 selection_a=1-13 selection_b=14-17 scaling=1.0 benchmark_Eint=-24.921 benchmark_unit=kcal/mol group=OH-Oa pbc="F F F"
H        1.59490071      -2.71382569      -1.46325085
H        4.25819217       0.65793637      -1.41125120
H        3.79660874      -1.71099965      -1.99369458
H        0.31132338       0.96914268       0.27515196
H       -1.06025420      -0.89165200       0.01275170
H        2.49560940       1.98968901      -0.28044823
C        3.29951210       0.21402800      -1.18053503
C        3.03736730      -1.11343381      -1.50482669
C        1.80767085      -1.68410274      -1.21096097
C        0.80743840      -0.93253336      -0.58030426
C        1.07204013       0.40274114      -0.24465665
C        2.30625714       0.95814451      -0.54879072
O       -0.36044970      -1.53024220      -0.31742605
N       -2.48170522       0.85074538       1.19219028
O       -2.44139462      -0.07535412       0.31603560
O       -3.57078294       1.37165486       1.47060848
O       -1.42344351       1.21311731       1.74713798
17
Properties=species:S:1:pos:R:3 charge=-1 charge_a=0 charge_b=-1 selection_a=1-13 selection_b=14-17 scaling=1.05 benchmark_Eint=-24.671 benchmark_unit=kcal/mol group=OH-Oa pbc="F F F"
H        1.59490071      -2.71382569      -1.46325085
H        4.25819217       0.65793637      -1.41125120
H        3.79660874      -1.71099965      -1.99369458
H        0.31132338       0.96914268       0.27515196
H       -1.06025420      -0.89165200       0.01275170
H        2.49560940       1.98968901      -0.28044823
C        3.29951210       0.21402800      -1.18053503
C        3.03736730      -1.11343381      -1.50482669
C        1.80767085      -1.68410274      -1.21096097
C        0.80743840      -0.93253336      -0.58030426
C        1.07204013       0.40274114      -0.24465665
C        2.30625714       0.95814451      -0.54879072
O       -0.36044970      -1.53024220      -0.31742605
N       -2.55076224       0.89156028       1.20735448
O       -2.51045164      -0.03453923       0.33119979
O       -3.63983996       1.41246976       1.48577267
O       -1.49250054       1.25393220       1.76230218
17
Properties=species:S:1:pos:R:3 charge=-1 charge_a=0 charge_b=-1 selection_a=1-13 selection_b=14-17 scaling=1.1 benchmark_Eint=-24.073 benchmark_unit=kcal/mol group=OH-Oa pbc="F F F"
H        1.59490071      -2.71382569      -1.46325085
H        4.25819217       0.65793637      -1.41125120
H        3.79660874      -1.71099965      -1.99369458
H        0.31132338       0.96914268       0.27515196
H       -1.06025420      -0.89165200       0.01275170
H        2.49560940       1.98968901      -0.28044823
C        3.29951210       0.21402800      -1.18053503
C        3.03736730      -1.11343381      -1.50482669
C        1.80767085      -1.68410274      -1.21096097
C        0.80743840      -0.93253336      -0.58030426
C        1.07204013       0.40274114      -0.24465665
C        2.30625714       0.95814451      -0.54879072
O       -0.36044970      -1.53024220      -0.31742605
N       -2.61981926       0.93237517       1.22251868
O       -2.57950866       0.00627567       0.34636399
O       -3.70889698       1.45328465       1.50093687
O       -1.56155756       1.29474710       1.77746637
17
Properties=species:S:1:pos:R:3 charge=-1 charge_a=0 charge_b=-1 selection_a=1-13 selection_b=14-17 scaling=1.25 benchmark_Eint=-21.258 benchmark_unit=kcal/mol group=OH-Oa pbc="F F F"
H        1.59490071      -2.71382569      -1.46325085
H        4.25819217       0.65793637      -1.41125120
H        3.79660874      -1.71099965      -1.99369458
H        0.31132338       0.96914268       0.27515196
H       -1.06025420      -0.89165200       0.01275170
H        2.49560940       1.98968901      -0.28044823
C        3.29951210       0.21402800      -1.18053503
C        3.03736730      -1.11343381      -1.50482669
C        1.80767085      -1.68410274      -1.21096097
C        0.80743840      -0.93253336      -0.58030426
C        1.07204013       0.40274114      -0.24465665
C        2.30625714       0.95814451      -0.54879072
O       -0.36044970      -1.53024220      -0.31742605
N       -2.82699033       1.05481985       1.26801126
O       -2.78667973       0.12872035       0.39185657
O       -3.91606805       1.57572933       1.54642945
O       -1.76872862       1.41719178       1.82295896
17
Properties=species:S:1:pos:R:3 charge=-1 charge_a=0 charge_b=-1 selection_a=1-13 selection_b=14-17 scaling=1.5 benchmark_Eint=-16.173 benchmark_unit=kcal/mol group=OH-Oa pbc="F F F"
H        1.59490071      -2.71382569      -1.46325085
H        4.25819217       0.65793637      -1.41125120
H        3.79660874      -1.71099965      -1.99369458
H        0.31132338       0.96914268       0.27515196
H       -1.06025420      -0.89165200       0.01275170
H        2.49560940       1.98968901      -0.28044823
C        3.29951210       0.21402800      -1.18053503
C        3.03736730      -1.11343381      -1.50482669
C        1.80767085      -1.68410274      -1.21096097
C        0.80743840      -0.93253336      -0.58030426
C        1.07204013       0.40274114      -0.24465665
C        2.30625714       0.95814451      -0.54879072
O       -0.36044970      -1.53024220      -0.31742605
N       -3.17227543       1.25889432       1.34383224
O       -3.13196483       0.33279482       0.46767755
O       -4.26135315       1.77980381       1.62225043
O       -2.11401372       1.62126625       1.89877993
17
Properties=species:S:1:pos:R:3 charge=-1 charge_a=0 charge_b=-1 selection_a=1-13 selection_b=14-17 scaling=2.0 benchmark_Eint=-9.405 benchmark_unit=kcal/mol group=OH-Oa pbc="F F F"
H        1.59490071      -2.71382569      -1.46325085
H        4.25819217       0.65793637      -1.41125120
H        3.79660874      -1.71099965      -1.99369458
H        0.31132338       0.96914268       0.27515196
H       -1.06025420      -0.89165200       0.01275170
H        2.49560940       1.98968901      -0.28044823
C        3.29951210       0.21402800      -1.18053503
C        3.03736730      -1.11343381      -1.50482669
C        1.80767085      -1.68410274      -1.21096097
C        0.80743840      -0.93253336      -0.58030426
C        1.07204013       0.40274114      -0.24465665
C        2.30625714       0.95814451      -0.54879072
O       -0.36044970      -1.53024220      -0.31742605
N       -3.86284564       1.66704327       1.49547419
O       -3.82253504       0.74094376       0.61931950
O       -4.95192336       2.18795275       1.77389238
O       -2.80458394       2.02941519       2.05042188
16
Properties=species:S:1:pos:R:3 charge=-1 charge_a=0 charge_b=-1 selection_a=1-13 selection_b=14-16 scaling=0.8 benchmark_Eint=-21.742 benchmark_unit=kcal/mol group=OH-Oa pbc="F F F"
H        1.32184371      -2.31532759      -1.26098425
H        4.30812231       0.70028657      -0.58374059
H        3.67044513      -1.55157302      -1.41586117
H        0.21659531       1.39065311       0.55017035
H       -1.28102374      -0.31021203       0.12987381
H        2.55981332       2.16134957       0.39935830
C        3.28337599       0.36126726      -0.51863365
C        2.92119445      -0.89980617      -0.98359360
C        1.60803020      -1.33662452      -0.90118063
C        0.61127684      -0.51746804      -0.34660389
C        0.97936880       0.75629682       0.12256953
C        2.29792162       1.17680151       0.03207529
O       -0.63342238      -0.98290215      -0.29046749
N       -3.16295633       0.55836207       0.88730816
O       -1.90691614       0.64502910       0.66665616
O       -3.69955254      -0.49762567       0.54570236
16
Properties=species:S:1:pos:R:3 charge=-1 charge_a=0 charge_b=-1 selection_a=1-13 selection_b=14-16 scaling=0.85 benchmark_Eint=-25.291 benchmark_unit=kcal/mol group=OH-Oa pbc="F F F"
H        1.32184371      -2.31532759      -1.26098425
H        4.30812231       0.70028657      -0.58374059
H        3.67044513      -1.55157302      -1.41586117
H        0.21659531       1.39065311       0.55017035
H       -1.28102374      -0.31021203       0.12987381
H        2.55981332       2.16134957       0.39935830
C        3.28337599       0.36126726      -0.51863365
C        2.92119445      -0.89980617      -0.98359360
C        1.60803020      -1.33662452      -0.90118063
C        0.61127684      -0.51746804      -0.34660389
C        0.97936880       0.75629682       0.12256953
C        2.29792162       1.17680151       0.03207529
O       -0.63342238      -0.98290215      -0.29046749
N       -3.20207460       0.61806464       0.92085706
O       -1.94603441       0.70473167       0.70020506
O       -3.73867081      -0.43792310       0.57925126
16
Properties=species:S:1:pos:R:3 charge=-1 charge_a=0 charge_b=-1 selection_a=1-13 selection_b=14-16 scaling=0.9 benchmark_Eint=-27.334 benchmark_unit=kcal/mol group=OH-Oa pbc="F F F"
H        1.32184371      -2.31532759      -1.26098425
H        4.30812231       0.70028657      -0.58374059
H        3.67044513      -1.55157302      -1.41586117
H        0.21659531       1.39065311       0.55017035
H       -1.28102374      -0.31021203       0.12987381
H        2.55981332       2.16134957       0.39935830
C        3.28337599       0.36126726      -0.51863365
C        2.92119445      -0.89980617      -0.98359360
C        1.60803020      -1.33662452      -0.90118063
C        0.61127684      -0.51746804      -0.34660389
C        0.97936880       0.75629682       0.12256953
C        2.29792162       1.17680151       0.03207529
O       -0.63342238      -0.98290215      -0.29046749
N       -3.24119288       0.67776721       0.95440595
O       -1.98515269       0.76443425       0.73375395
O       -3.77778909      -0.37822053       0.61280016
16
Properties=species:S:1:pos:R:3 charge=-1 charge_a=0 charge_b=-1 selection_a=1-13 selection_b=14-16 scaling=0.95 benchmark_Eint=-28.33 benchmark_unit=kcal/mol group=OH-Oa pbc="F F F"
H        1.32184371      -2.31532759      -1.26098425
H        4.30812231       0.70028657      -0.58374059
H        3.67044513      -1.55157302      -1.41586117
H        0.21659531       1.39065311       0.55017035
H       -1.28102374      -0.31021203       0.12987381
H        2.55981332       2.16134957       0.39935830
C        3.28337599       0.36126726      -0.51863365
C        2.92119445      -0.89980617      -0.98359360
C        1.60803020      -1.33662452      -0.90118063
C        0.61127684      -0.51746804      -0.34660389
C        0.97936880       0.75629682       0.12256953
C        2.29792162       1.17680151       0.03207529
O       -0.63342238      -0.98290215      -0.29046749
N       -3.28031115       0.73746978       0.98795485
O       -2.02427096       0.82413682       0.76730285
O       -3.81690736      -0.31851796       0.64634905
16
Properties=species:S:1:pos:R:3 charge=-1 charge_a=0 charge_b=-1 selection_a=1-13 selection_b=14-16 scaling=1.0 benchmark_Eint=-28.596 benchmark_unit=kcal/mol group=OH-Oa pbc="F F F"
H        1.32184371      -2.31532759      -1.26098425
H        4.30812231       0.70028657      -0.58374059
H        3.67044513      -1.55157302      -1.41586117
H        0.21659531       1.39065311       0.55017035
H       -1.28102374      -0.31021203       0.12987381
H        2.55981332       2.16134957       0.39935830
C        3.28337599       0.36126726      -0.51863365
C        2.92119445      -0.89980617      -0.98359360
C        1.60803020      -1.33662452      -0.90118063
C        0.61127684      -0.51746804      -0.34660389
C        0.97936880       0.75629682       0.12256953
C        2.29792162       1.17680151       0.03207529
O       -0.63342238      -0.98290215      -0.29046749
N       -3.31942943       0.79717235       1.02150375
O       -2.06338924       0.88383939       0.80085175
O       -3.85602563      -0.25881539       0.67989795
16
Properties=species:S:1:pos:R:3 charge=-1 charge_a=0 charge_b=-1 selection_a=1-13 selection_b=14-16 scaling=1.05 benchmark_Eint=-28.358 benchmark_unit=kcal/mol group=OH-Oa pbc="F F F"
H        1.32184371      -2.31532759      -1.26098425
H        4.30812231       0.70028657      -0.58374059
H        3.67044513      -1.55157302      -1.41586117
H        0.21659531       1.39065311       0.55017035
H       -1.28102374      -0.31021203       0.12987381
H        2.55981332       2.16134957       0.39935830
C        3.28337599       0.36126726      -0.51863365
C        2.92119445      -0.89980617      -0.98359360
C        1.60803020      -1.33662452      -0.90118063
C        0.61127684      -0.51746804      -0.34660389
C        0.97936880       0.75629682       0.12256953
C        2.29792162       1.17680151       0.03207529
O       -0.63342238      -0.98290215      -0.29046749
N       -3.35854770       0.85687492       1.05505264
O       -2.10250751       0.94354196       0.83440064
O       -3.89514391      -0.19911282       0.71344685
16
Properties=species:S:1:pos:R:3 charge=-1 charge_a=0 charge_b=-1 selection_a=1-13 selection_b=14-16 scaling=1.1 benchmark_Eint=-27.78 benchmark_unit=kcal/mol group=OH-Oa pbc="F F F"
H        1.32184371      -2.31532759      -1.26098425
H        4.30812231       0.70028657      -0.58374059
H        3.67044513      -1.55157302      -1.41586117
H        0.21659531       1.39065311       0.55017035
H       -1.28102374      -0.31021203       0.12987381
H        2.55981332       2.16134957       0.39935830
C        3.28337599       0.36126726      -0.51863365
C        2.92119445      -0.89980617      -0.98359360
C        1.60803020      -1.33662452      -0.90118063
C        0.61127684      -0.51746804      -0.34660389
C        0.97936880       0.75629682       0.12256953
C        2.29792162       1.17680151       0.03207529
O       -0.63342238      -0.98290215      -0.29046749
N       -3.39766598       0.91657749       1.08860154
O       -2.14162579       1.00324453       0.86794954
O       -3.93426218      -0.13941025       0.74699574
16
Properties=species:S:1:pos:R:3 charge=-1 charge_a=0 charge_b=-1 selection_a=1-13 selection_b=14-16 scaling=1.25 benchmark_Eint=-25.003 benchmark_unit=kcal/mol group=OH-Oa pbc="F F F"
H        1.32184371      -2.31532759      -1.26098425
H        4.30812231       0.70028657      -0.58374059
H        3.67044513      -1.55157302      -1.41586117
H        0.21659531       1.39065311       0.55017035
H       -1.28102374      -0.31021203       0.12987381
H        2.55981332       2.16134957       0.39935830
C        3.28337599       0.36126726      -0.51863365
C        2.92119445      -0.89980617      -0.98359360
C        1.60803020      -1.33662452      -0.90118063
C        0.61127684      -0.51746804      -0.34660389
C        0.97936880       0.75629682       0.12256953
C        2.29792162       1.17680151       0.03207529
O       -0.63342238      -0.98290215      -0.29046749
N       -3.51502080       1.09568521       1.18924823
O       -2.25898061       1.18235224       0.96859623
O       -4.05161701       0.03969746       0.84764244
16
Properties=species:S:1:pos:R:3 charge=-1 charge_a=0 charge_b=-1 selection_a=1-13 selection_b=14-16 scaling=1.5 benchmark_Eint=-19.759 benchmark_unit=kcal/mol group=OH-Oa pbc="F F F"
H        1.32184371      -2.31532759      -1.26098425
H        4.30812231       0.70028657      -0.58374059
H        3.67044513      -1.55157302      -1.41586117
H        0.21659531       1.39065311       0.55017035
H       -1.28102374      -0.31021203       0.12987381
H        2.55981332       2.16134957       0.39935830
C        3.28337599       0.36126726      -0.51863365
C        2.92119445      -0.89980617      -0.98359360
C        1.60803020      -1.33662452      -0.90118063
C        0.61127684      -0.51746804      -0.34660389
C        0.97936880       0.75629682       0.12256953
C        2.29792162       1.17680151       0.03207529
O       -0.63342238      -0.98290215      -0.29046749
N       -3.71061217       1.39419806       1.35699272
O       -2.45457198       1.48086509       1.13634072
O       -4.24720838       0.33821031       1.01538692
16
Properties=species:S:1:pos:R:3 charge=-1 charge_a=0 charge_b=-1 selection_a=1-13 selection_b=14-16 scaling=2.0 benchmark_Eint=-12.122 benchmark_unit=kcal/mol group=OH-Oa pbc="F F F"
H        1.32184371      -2.31532759      -1.26098425
H        4.30812231       0.70028657      -0.58374059
H        3.67044513      -1.55157302      -1.41586117
H        0.21659531       1.39065311       0.55017035
H       -1.28102374      -0.31021203       0.12987381
H        2.55981332       2.16134957       0.39935830
C        3.28337599       0.36126726      -0.51863365
C        2.92119445      -0.89980617      -0.98359360
C        1.60803020      -1.33662452      -0.90118063
C        0.61127684      -0.51746804      -0.34660389
C        0.97936880       0.75629682       0.12256953
C        2.29792162       1.17680151       0.03207529
O       -0.63342238      -0.98290215      -0.29046749
N       -4.10179492       1.99122377       1.69248169
O       -2.84575473       2.07789080       1.47182969
O       -4.63839113       0.93523602       1.35087589
5
Properties=species:S:1:pos:R:3 charge=-1 charge_a=0 charge_b=-1 selection_a=1-3 selection_b=4-5 scaling=0.8 benchmark_Eint=-31.074 benchmark_unit=kcal/mol group=OH-Oa pbc="F F F"
O       -0.07871996      -0.92412774      -0.81100319
H        0.03168956      -0.04399380      -0.08184243
H       -0.29577304      -1.65479759      -0.22847788
O        0.11754301       0.74481246       0.61264859
H       -0.71416893       1.21772151       0.52920993
5
Properties=species:S:1:pos:R:3 charge=-1 charge_a=0 charge_b=-1 selection_a=1-3 selection_b=4-5 scaling=0.85 benchmark_Eint=-36.369 benchmark_unit=kcal/mol group=OH-Oa pbc="F F F"
O       -0.07871996      -0.92412774      -0.81100319
H        0.03168956      -0.04399380      -0.08184243
H       -0.29577304      -1.65479759      -0.22847788
O        0.12290885       0.79411285       0.65605428
H       -0.70880309       1.26702191       0.57261562
5
Properties=species:S:1:pos:R:3 charge=-1 charge_a=0 charge_b=-1 selection_a=1-3 selection_b=4-5 scaling=0.9 benchmark_Eint=-39.308 benchmark_unit=kcal/mol group=OH-Oa pbc="F F F"
O       -0.07871996      -0.92412774      -0.81100319
H        0.03168956      -0.04399380      -0.08184243
H       -0.29577304      -1.65479759      -0.22847788
O        0.12827469       0.84341325       0.69945997
H       -0.70343725       1.31632230       0.61602131
5
Properties=species:S:1:pos:R:3 charge=-1 charge_a=0 charge_b=-1 selection_a=1-3 selection_b=4-5 scaling=0.95 benchmark_Eint=-40.658 benchmark_unit=kcal/mol group=OH-Oa pbc="F F F"
O       -0.07871996      -0.92412774      -0.81100319
H        0.03168956      -0.04399380      -0.08184243
H       -0.29577304      -1.65479759      -0.22847788
O        0.13364053       0.89271364       0.74286565
H       -0.69807141       1.36562269       0.65942700
5
Properties=species:S:1:pos:R:3 charge=-1 charge_a=0 charge_b=-1 selection_a=1-3 selection_b=4-5 scaling=1.0 benchmark_Eint=-40.928 benchmark_unit=kcal/mol group=OH-Oa pbc="F F F"
O       -0.07871996      -0.92412774      -0.81100319
H        0.03168956      -0.04399380      -0.08184243
H       -0.29577304      -1.65479759      -0.22847788
O        0.13900637       0.94201403       0.78627134
H       -0.69270557       1.41492308       0.70283269
5
Properties=species:S:1:pos:R:3 charge=-1 charge_a=0 charge_b=-1 selection_a=1-3 selection_b=4-5 scaling=1.05 benchmark_Eint=-40.471 benchmark_unit=kcal/mol group=OH-Oa pbc="F F F"
O       -0.07871996      -0.92412774      -0.81100319
H        0.03168956      -0.04399380      -0.08184243
H       -0.29577304      -1.65479759      -0.22847788
O        0.14437221       0.99131442       0.82967703
H       -0.68733973       1.46422347       0.74623838
5
Properties=species:S:1:pos:R:3 charge=-1 charge_a=0 charge_b=-1 selection_a=1-3 selection_b=4-5 scaling=1.1 benchmark_Eint=-39.525 benchmark_unit=kcal/mol group=OH-Oa pbc="F F F"
O       -0.07871996      -0.92412774      -0.81100319
H        0.03168956      -0.04399380      -0.08184243
H       -0.29577304      -1.65479759      -0.22847788
O        0.14973805       1.04061481       0.87308272
H       -0.68197389       1.51352386       0.78964406
5
Properties=species:S:1:pos:R:3 charge=-1 charge_a=0 charge_b=-1 selection_a=1-3 selection_b=4-5 scaling=1.25 benchmark_Eint=-35.203 benchmark_unit=kcal/mol group=OH-Oa pbc="F F F"
O       -0.07871996      -0.92412774      -0.81100319
H        0.03168956      -0.04399380      -0.08184243
H       -0.29577304      -1.65479759      -0.22847788
O        0.16583557       1.18851598       1.00329979
H       -0.66587637       1.66142504       0.91986113
5
Properties=species:S:1:pos:R:3 charge=-1 charge_a=0 charge_b=-1 selection_a=1-3 selection_b=4-5 scaling=1.5 benchmark_Eint=-27.146 benchmark_unit=kcal/mol group=OH-Oa pbc="F F F"
O       -0.07871996      -0.92412774      -0.81100319
H        0.03168956      -0.04399380      -0.08184243
H       -0.29577304      -1.65479759      -0.22847788
O        0.19266477       1.43501794       1.22032823
H       -0.63904716       1.90792699       1.13688957
5
Properties=species:S:1:pos:R:3 charge=-1 charge_a=0 charge_b=-1 selection_a=1-3 selection_b=4-5 scaling=2.0 benchmark_Eint=-15.603 benchmark_unit=kcal/mol group=OH-Oa pbc="F F F"
O       -0.07871996      -0.92412774      -0.81100319
H        0.03168956      -0.04399380      -0.08184243
H       -0.29577304      -1.65479759      -0.22847788
O        0.24632318       1.92802186       1.65438512
H       -0.58538876       2.40093091       1.57094646
7
Properties=species:S:1:pos:R:3 charge=-1 charge_a=0 charge_b=-1 selection_a=1-3 selection_b=4-7 scaling=0.8 benchmark_Eint=-8.607 benchmark_unit=kcal/mol group=OH-Oa pbc="F F F"
O       -0.20010297      -1.99820467      -1.99499643
H       -0.15004424      -1.33915203      -1.26362958
H       -0.54129216      -2.77574567      -1.54959755
N        0.09121733       0.44885827       0.23289690
O       -0.25045240      -0.76063691       0.05084370
O        0.50943819       1.12206038      -0.73081457
O        0.00210179       0.94259050       1.37478128
7
Properties=species:S:1:pos:R:3 charge=-1 charge_a=0 charge_b=-1 selection_a=1-3 selection_b=4-7 scaling=0.85 benchmark_Eint=-11.211 benchmark_unit=kcal/mol group=OH-Oa pbc="F F F"
O       -0.20010297      -1.99820467      -1.99499643
H       -0.15004424      -1.33915203      -1.26362958
H       -0.54129216      -2.77574567      -1.54959755
N        0.08494182       0.48501546       0.31505148
O       -0.25672791      -0.72447972       0.13299828
O        0.50316268       1.15821758      -0.64865999
O       -0.00417372       0.97874769       1.45693586
7
Properties=species:S:1:pos:R:3 charge=-1 charge_a=0 charge_b=-1 selection_a=1-3 selection_b=4-7 scaling=0.9 benchmark_Eint=-12.702 benchmark_unit=kcal/mol group=OH-Oa pbc="F F F"
O       -0.20010297      -1.99820467      -1.99499643
H       -0.15004424      -1.33915203      -1.26362958
H       -0.54129216      -2.77574567      -1.54959755
N        0.07866631       0.52117266       0.39720606
O       -0.26300342      -0.68832252       0.21515286
O        0.49688717       1.19437477      -0.56650541
O       -0.01044923       1.01490489       1.53909044
7
Properties=species:S:1:pos:R:3 charge=-1 charge_a=0 charge_b=-1 selection_a=1-3 selection_b=4-7 scaling=0.95 benchmark_Eint=-13.429 benchmark_unit=kcal/mol group=OH-Oa pbc="F F F"
O       -0.20010297      -1.99820467      -1.99499643
H       -0.15004424      -1.33915203      -1.26362958
H       -0.54129216      -2.77574567      -1.54959755
N        0.07239080       0.55732985       0.47936064
O       -0.26927893      -0.65216533       0.29730744
O        0.49061166       1.23053196      -0.48435083
O       -0.01672474       1.05106208       1.62124502
7
Properties=species:S:1:pos:R:3 charge=-1 charge_a=0 charge_b=-1 selection_a=1-3 selection_b=4-7 scaling=1.0 benchmark_Eint=-13.639 benchmark_unit=kcal/mol group=OH-Oa pbc="F F F"
O       -0.20010297      -1.99820467      -1.99499643
H       -0.15004424      -1.33915203      -1.26362958
H       -0.54129216      -2.77574567      -1.54959755
N        0.06611529       0.59348705       0.56151522
O       -0.27555444      -0.61600813       0.37946202
O        0.48433615       1.26668916      -0.40219625
O       -0.02300025       1.08721928       1.70339960
7
Properties=species:S:1:pos:R:3 charge=-1 charge_a=0 charge_b=-1 selection_a=1-3 selection_b=4-7 scaling=1.05 benchmark_Eint=-13.506 benchmark_unit=kcal/mol group=OH-Oa pbc="F F F"
O       -0.20010297      -1.99820467      -1.99499643
H       -0.15004424      -1.33915203      -1.26362958
H       -0.54129216      -2.77574567      -1.54959755
N        0.05983978       0.62964424       0.64366980
O       -0.28182995      -0.57985094       0.46161660
O        0.47806064       1.30284635      -0.32004167
O       -0.02927576       1.12337647       1.78555418
7
Properties=species:S:1:pos:R:3 charge=-1 charge_a=0 charge_b=-1 selection_a=1-3 selection_b=4-7 scaling=1.1 benchmark_Eint=-13.155 benchmark_unit=kcal/mol group=OH-Oa pbc="F F F"
O       -0.20010297      -1.99820467      -1.99499643
H       -0.15004424      -1.33915203      -1.26362958
H       -0.54129216      -2.77574567      -1.54959755
N        0.05356427       0.66580144       0.72582438
O       -0.28810546      -0.54369375       0.54377118
O        0.47178513       1.33900355      -0.23788709
O       -0.03555127       1.15953367       1.86770876
7
Properties=species:S:1:pos:R:3 charge=-1 charge_a=0 charge_b=-1 selection_a=1-3 selection_b=4-7 scaling=1.25 benchmark_Eint=-11.51 benchmark_unit=kcal/mol group=OH-Oa pbc="F F F"
O       -0.20010297      -1.99820467      -1.99499643
H       -0.15004424      -1.33915203      -1.26362958
H       -0.54129216      -2.77574567      -1.54959755
N        0.03473774       0.77427302       0.97228812
O       -0.30693199      -0.43522216       0.79023492
O        0.45295860       1.44747513       0.00857665
O       -0.05437780       1.26800525       2.11417250
7
Properties=species:S:1:pos:R:3 charge=-1 charge_a=0 charge_b=-1 selection_a=1-3 selection_b=4-7 scaling=1.5 benchmark_Eint=-8.687 benchmark_unit=kcal/mol group=OH-Oa pbc="F F F"
O       -0.20010297      -1.99820467      -1.99499643
H       -0.15004424      -1.33915203      -1.26362958
H       -0.54129216      -2.77574567      -1.54959755
N        0.00336019       0.95505899       1.38306102
O       -0.33830954      -0.25443619       1.20100782
O        0.42158105       1.62826111       0.41934955
O       -0.08575535       1.44879122       2.52494539
7
Properties=species:S:1:pos:R:3 charge=-1 charge_a=0 charge_b=-1 selection_a=1-3 selection_b=4-7 scaling=2.0 benchmark_Eint=-5.183 benchmark_unit=kcal/mol group=OH-Oa pbc="F F F"
O       -0.20010297      -1.99820467      -1.99499643
H       -0.15004424      -1.33915203      -1.26362958
H       -0.54129216      -2.77574567      -1.54959755
N       -0.05939490       1.31663094       2.20460682
O       -0.40106464       0.10713576       2.02255362
O        0.35882595       1.98983305       1.24089535
O       -0.14851045       1.81036317       3.34649119
6
Properties=species:S:1:pos:R:3 charge=-1 charge_a=0 charge_b=-1 selection_a=1-3 selection_b=4-6 scaling=0.8 benchmark_Eint=-11.151 benchmark_unit=kcal/mol group=OH-Oa pbc="F F F"
O        0.18181852      -2.06429826      -1.29693961
H        0.26175457      -1.09495373      -1.06810751
H       -0.22877919      -2.41781920      -0.50533116
N       -0.22330098       0.07554123       0.54613345
O        0.29748705       0.17727785      -0.60896122
O       -0.31157686       1.12765687       1.19685271
6
Properties=species:S:1:pos:R:3 charge=-1 charge_a=0 charge_b=-1 selection_a=1-3 selection_b=4-6 scaling=0.85 benchmark_Eint=-14.37 benchmark_unit=kcal/mol group=OH-Oa pbc="F F F"
O        0.18181852      -2.06429826      -1.29693961
H        0.26175457      -1.09495373      -1.06810751
H       -0.22877919      -2.41781920      -0.50533116
N       -0.22106770       0.15505570       0.57483009
O        0.29972033       0.25679233      -0.58026457
O       -0.30934358       1.20717135       1.22554935
6
Properties=species:S:1:pos:R:3 charge=-1 charge_a=0 charge_b=-1 selection_a=1-3 selection_b=4-6 scaling=0.9 benchmark_Eint=-16.249 benchmark_unit=kcal/mol group=OH-Oa pbc="F F F"
O        0.18181852      -2.06429826      -1.29693961
H        0.26175457      -1.09495373      -1.06810751
H       -0.22877919      -2.41781920      -0.50533116
N       -0.21883442       0.23457017       0.60352673
O        0.30195361       0.33630680      -0.55156793
O       -0.30711030       1.28668582       1.25424600
6
Properties=species:S:1:pos:R:3 charge=-1 charge_a=0 charge_b=-1 selection_a=1-3 selection_b=4-6 scaling=0.95 benchmark_Eint=-17.196 benchmark_unit=kcal/mol group=OH-Oa pbc="F F F"
O        0.18181852      -2.06429826      -1.29693961
H        0.26175457      -1.09495373      -1.06810751
H       -0.22877919      -2.41781920      -0.50533116
N       -0.21660114       0.31408465       0.63222338
O        0.30418689       0.41582127      -0.52287128
O       -0.30487702       1.36620029       1.28294264
6
Properties=species:S:1:pos:R:3 charge=-1 charge_a=0 charge_b=-1 selection_a=1-3 selection_b=4-6 scaling=1.0 benchmark_Eint=-17.5 benchmark_unit=kcal/mol group=OH-Oa pbc="F F F"
O        0.18181852      -2.06429826      -1.29693961
H        0.26175457      -1.09495373      -1.06810751
H       -0.22877919      -2.41781920      -0.50533116
N       -0.21436785       0.39359912       0.66092002
O        0.30642017       0.49533575      -0.49417464
O       -0.30264374       1.44571477       1.31163928
6
Properties=species:S:1:pos:R:3 charge=-1 charge_a=0 charge_b=-1 selection_a=1-3 selection_b=4-6 scaling=1.05 benchmark_Eint=-17.369 benchmark_unit=kcal/mol group=OH-Oa pbc="F F F"
O        0.18181852      -2.06429826      -1.29693961
H        0.26175457      -1.09495373      -1.06810751
H       -0.22877919      -2.41781920      -0.50533116
N       -0.21213457       0.47311359       0.68961666
O        0.30865345       0.57485022      -0.46547800
O       -0.30041046       1.52522924       1.34033593
6
Properties=species:S:1:pos:R:3 charge=-1 charge_a=0 charge_b=-1 selection_a=1-3 selection_b=4-6 scaling=1.1 benchmark_Eint=-16.951 benchmark_unit=kcal/mol group=OH-Oa pbc="F F F"
O        0.18181852      -2.06429826      -1.29693961
H        0.26175457      -1.09495373      -1.06810751
H       -0.22877919      -2.41781920      -0.50533116
N       -0.20990129       0.55262807       0.71831331
O        0.31088673       0.65436470      -0.43678135
O       -0.29817718       1.60474371       1.36903257
6
Properties=species:S:1:pos:R:3 charge=-1 charge_a=0 charge_b=-1 selection_a=1-3 selection_b=4-6 scaling=1.25 benchmark_Eint=-14.888 benchmark_unit=kcal/mol group=OH-Oa pbc="F F F"
O        0.18181852      -2.06429826      -1.29693961
H        0.26175457      -1.09495373      -1.06810751
H       -0.22877919      -2.41781920      -0.50533116
N       -0.20320145       0.79117149       0.80440324
O        0.31758657       0.89290812      -0.35069142
O       -0.29147734       1.84328714       1.45512250
6
Properties=species:S:1:pos:R:3 charge=-1 charge_a=0 charge_b=-1 selection_a=1-3 selection_b=4-6 scaling=1.5 benchmark_Eint=-11.192 benchmark_unit=kcal/mol group=OH-Oa pbc="F F F"
O        0.18181852      -2.06429826      -1.29693961
H        0.26175457      -1.09495373      -1.06810751
H       -0.22877919      -2.41781920      -0.50533116
N       -0.19203505       1.18874386       0.94788646
O        0.32875297       1.29048049      -0.20720820
O       -0.28031093       2.24085950       1.59860572
6
Properties=species:S:1:pos:R:3 charge=-1 charge_a=0 charge_b=-1 selection_a=1-3 selection_b=4-6 scaling=2.0 benchmark_Eint=-6.481 benchmark_unit=kcal/mol group=OH-Oa pbc="F F F"
O        0.18181852      -2.06429826      -1.29693961
H        0.26175457      -1.09495373      -1.06810751
H       -0.22877919      -2.41781920      -0.50533116
N       -0.16970225       1.98388860       1.23485289
O        0.35108577       2.08562522       0.07975823
O       -0.25797813       3.03600424       1.88557216
17
Properties=species:S:1:pos:R:3 charge=-1 charge_a=0 charge_b=-1 selection_a=1-3 selection_b=4-17 scaling=0.8 benchmark_Eint=-12.354 benchmark_unit=kcal/mol group=OH-Oa pbc="F F F"
O       -0.03080112      -4.27271739      -0.33330015
H        0.20660063      -3.57558924      -0.96895582
H       -0.25696756      -3.68069214       0.40470323
O        0.34780575      -1.98309844      -1.22554735
C       -0.00861660      -1.51808801      -0.11715605
O       -0.37160023      -2.14375666       0.90681872
C        0.00029058       0.01393044       0.00121306
C       -0.37769631       0.63694911       1.18880364
C       -0.37148483       2.02256822       1.29884194
C        0.01520963       2.80717622       0.21654766
C        0.39458223       2.19365722      -0.97348278
C        0.38602878       0.80755523      -1.07710427
H       -0.67322870       0.00377024       2.01288141
H       -0.66796875       2.49375345       2.22779288
H        0.02082555       3.88656668       0.29971608
H        0.69670665       2.79848758      -1.81951545
H        0.67537960       0.30505571      -1.98876721
17
Properties=species:S:1:pos:R:3 charge=-1 charge_a=0 charge_b=-1 selection_a=1-3 selection_b=4-17 scaling=0.85 benchmark_Eint=-16.031 benchmark_unit=kcal/mol group=OH-Oa pbc="F F F"
O       -0.03080112      -4.27271739      -0.33330015
H        0.20660063      -3.57558924      -0.96895582
H       -0.25696756      -3.68069214       0.40470323
O        0.34865706      -1.88284010      -1.21768143
C       -0.00776529      -1.41782966      -0.10929013
O       -0.37074892      -2.04349832       0.91468464
C        0.00114189       0.11418878       0.00907898
C       -0.37684500       0.73720745       1.19666957
C       -0.37063352       2.12282657       1.30670786
C        0.01606094       2.90743457       0.22441358
C        0.39543354       2.29391556      -0.96561686
C        0.38688009       0.90781358      -1.06923835
H       -0.67237739       0.10402858       2.02074734
H       -0.66711744       2.59401179       2.23565880
H        0.02167686       3.98682502       0.30758200
H        0.69755797       2.89874593      -1.81164952
H        0.67623091       0.40531406      -1.98090129
17
Properties=species:S:1:pos:R:3 charge=-1 charge_a=0 charge_b=-1 selection_a=1-3 selection_b=4-17 scaling=0.9 benchmark_Eint=-18.078 benchmark_unit=kcal/mol group=OH-Oa pbc="F F F"
O       -0.03080112      -4.27271739      -0.33330015
H        0.20660063      -3.57558924      -0.96895582
H       -0.25696756      -3.68069214       0.40470323
O        0.34950837      -1.78258175      -1.20981550
C       -0.00691398      -1.31757132      -0.10142421
O       -0.36989761      -1.94323997       0.92255056
C        0.00199320       0.21444713       0.01694491
C       -0.37599369       0.83746580       1.20453549
C       -0.36978221       2.22308491       1.31457379
C        0.01691225       3.00769292       0.23227951
C        0.39628484       2.39417391      -0.95775093
C        0.38773140       1.00807192      -1.06137243
H       -0.67152608       0.20428693       2.02861326
H       -0.66626613       2.69427014       2.24352472
H        0.02252817       4.08708337       0.31544792
H        0.69840927       2.99900427      -1.80378360
H        0.67708222       0.50557241      -1.97303537
17
Properties=species:S:1:pos:R:3 charge=-1 charge_a=0 charge_b=-1 selection_a=1-3 selection_b=4-17 scaling=0.95 benchmark_Eint=-19.016 benchmark_unit=kcal/mol group=OH-Oa pbc="F F F"
O       -0.03080112      -4.27271739      -0.33330015
H        0.20660063      -3.57558924      -0.96895582
H       -0.25696756      -3.68069214       0.40470323
O        0.35035968      -1.68232341      -1.20194958
C       -0.00606267      -1.21731297      -0.09355828
O       -0.36904630      -1.84298163       0.93041649
C        0.00284451       0.31470547       0.02481083
C       -0.37514238       0.93772415       1.21240141
C       -0.36893090       2.32334326       1.32243971
C        0.01776356       3.10795126       0.24014543
C        0.39713615       2.49443225      -0.94988501
C        0.38858271       1.10833027      -1.05350651
H       -0.67067477       0.30454528       2.03647918
H       -0.66541482       2.79452848       2.25139064
H        0.02337948       4.18734171       0.32331384
H        0.69926058       3.09926262      -1.79591768
H        0.67793353       0.60583075      -1.96516944
17
Properties=species:S:1:pos:R:3 charge=-1 charge_a=0 charge_b=-1 selection_a=1-3 selection_b=4-17 scaling=1.0 benchmark_Eint=-19.213 benchmark_unit=kcal/mol group=OH-Oa pbc="F F F"
O       -0.03080112      -4.27271739      -0.33330015
H        0.20660063      -3.57558924      -0.96895582
H       -0.25696756      -3.68069214       0.40470323
O        0.35121099      -1.58206506      -1.19408366
C       -0.00521136      -1.11705463      -0.08569236
O       -0.36819499      -1.74272328       0.93828241
C        0.00369581       0.41496382       0.03267675
C       -0.37429107       1.03798249       1.22026733
C       -0.36807959       2.42360160       1.33030563
C        0.01861487       3.20820961       0.24801135
C        0.39798746       2.59469060      -0.94201909
C        0.38943402       1.20858861      -1.04564058
H       -0.66982346       0.40480362       2.04434511
H       -0.66456351       2.89478683       2.25925657
H        0.02423079       4.28760006       0.33117977
H        0.70011189       3.19952096      -1.78805176
H        0.67878484       0.70608910      -1.95730352
17
Properties=species:S:1:pos:R:3 charge=-1 charge_a=0 charge_b=-1 selection_a=1-3 selection_b=4-17 scaling=1.05 benchmark_Eint=-18.928 benchmark_unit=kcal/mol group=OH-Oa pbc="F F F"
O       -0.03080112      -4.27271739      -0.33330015
H        0.20660063      -3.57558924      -0.96895582
H       -0.25696756      -3.68069214       0.40470323
O        0.35206230      -1.48180672      -1.18621774
C       -0.00436006      -1.01679628      -0.07782644
O       -0.36734368      -1.64246493       0.94614833
C        0.00454712       0.51522217       0.04054268
C       -0.37343976       1.13824084       1.22813326
C       -0.36722828       2.52385995       1.33817155
C        0.01946617       3.30846795       0.25587728
C        0.39883877       2.69494895      -0.93415317
C        0.39028533       1.30884696      -1.03777466
H       -0.66897215       0.50506197       2.05221103
H       -0.66371220       2.99504518       2.26712249
H        0.02508210       4.38785841       0.33904569
H        0.70096320       3.29977931      -1.78018583
H        0.67963615       0.80634744      -1.94943760
17
Properties=species:S:1:pos:R:3 charge=-1 charge_a=0 charge_b=-1 selection_a=1-3 selection_b=4-17 scaling=1.1 benchmark_Eint=-18.339 benchmark_unit=kcal/mol group=OH-Oa pbc="F F F"
O       -0.03080112      -4.27271739      -0.33330015
H        0.20660063      -3.57558924      -0.96895582
H       -0.25696756      -3.68069214       0.40470323
O        0.35291361      -1.38154837      -1.17835181
C       -0.00350875      -0.91653794      -0.06996051
O       -0.36649237      -1.54220659       0.95401426
C        0.00539843       0.61548051       0.04840860
C       -0.37258845       1.23849918       1.23599918
C       -0.36637697       2.62411830       1.34603748
C        0.02031748       3.40872630       0.26374320
C        0.39969008       2.79520729      -0.92628724
C        0.39113664       1.40910530      -1.02990874
H       -0.66812084       0.60532031       2.06007695
H       -0.66286089       3.09530352       2.27498841
H        0.02593341       4.48811675       0.34691161
H        0.70181451       3.40003766      -1.77231991
H        0.68048746       0.90660579      -1.94157167
17
Properties=species:S:1:pos:R:3 charge=-1 charge_a=0 charge_b=-1 selection_a=1-3 selection_b=4-17 scaling=1.25 benchmark_Eint=-15.812 benchmark_unit=kcal/mol group=OH-Oa pbc="F F F"
O       -0.03080112      -4.27271739      -0.33330015
H        0.20660063      -3.57558924      -0.96895582
H       -0.25696756      -3.68069214       0.40470323
O        0.35546754      -1.08077333      -1.15475404
C       -0.00095482      -0.61576290      -0.04636274
O       -0.36393845      -1.24143155       0.97761202
C        0.00795236       0.91625555       0.07200637
C       -0.37003453       1.53927422       1.25959695
C       -0.36382304       2.92489334       1.36963525
C        0.02287141       3.70950134       0.28734097
C        0.40224401       3.09598233      -0.90268947
C        0.39369056       1.70988034      -1.00631097
H       -0.66556692       0.90609535       2.08367472
H       -0.66030696       3.39607856       2.29858618
H        0.02848734       4.78889179       0.37050938
H        0.70436844       3.70081269      -1.74872214
H        0.68304139       1.20738083      -1.91797390
17
Properties=species:S:1:pos:R:3 charge=-1 charge_a=0 charge_b=-1 selection_a=1-3 selection_b=4-17 scaling=1.5 benchmark_Eint=-11.682 benchmark_unit=kcal/mol group=OH-Oa pbc="F F F"
O       -0.03080112      -4.27271739      -0.33330015
H        0.20660063      -3.57558924      -0.96895582
H       -0.25696756      -3.68069214       0.40470323
O        0.35972409      -0.57948160      -1.11542443
C        0.00330173      -0.11447117      -0.00703313
O       -0.35968190      -0.74013982       1.01694164
C        0.01220891       1.41754728       0.11133598
C       -0.36577798       2.04056595       1.29892656
C       -0.35956649       3.42618506       1.40896486
C        0.02712796       4.21079307       0.32667058
C        0.40650056       3.59727406      -0.86335986
C        0.39794711       2.21117207      -0.96698135
H       -0.66131037       1.40738708       2.12300433
H       -0.65605041       3.89737029       2.33791579
H        0.03274389       5.29018352       0.40983899
H        0.70862499       4.20210442      -1.70939253
H        0.68729793       1.70867256      -1.87864429
17
Properties=species:S:1:pos:R:3 charge=-1 charge_a=0 charge_b=-1 selection_a=1-3 selection_b=4-17 scaling=2.0 benchmark_Eint=-6.722 benchmark_unit=kcal/mol group=OH-Oa pbc="F F F"
O       -0.03080112      -4.27271739      -0.33330015
H        0.20660063      -3.57558924      -0.96895582
H       -0.25696756      -3.68069214       0.40470323
O        0.36823718       0.42310186      -1.03676520
C        0.01181482       0.88811229       0.07162610
O       -0.35116880       0.26244364       1.09560087
C        0.02072200       2.42013074       0.18999521
C       -0.35726488       3.04314941       1.37758579
C       -0.35105340       4.42876852       1.48762409
C        0.03564105       5.21337653       0.40532981
C        0.41501365       4.59985752      -0.78470063
C        0.40646021       3.21375553      -0.88832213
H       -0.65279727       2.40997054       2.20166356
H       -0.64753732       4.89995375       2.41657502
H        0.04125698       6.29276698       0.48849822
H        0.71713808       5.20468788      -1.63073330
H        0.69581103       2.71125602      -1.79998506
10
Properties=species:S:1:pos:R:3 charge=-1 charge_a=0 charge_b=-1 selection_a=1-8 selection_b=9-10 scaling=0.8 benchmark_Eint=-21.251 benchmark_unit=kcal/mol group=OH-Na pbc="F F F"
C        1.10471041      -0.40034392      -0.01574483
O        0.69858668      -1.52337202      -0.25077405
O        0.38143280       0.67521514       0.14850699
H       -0.68671669       0.56302645       0.06911919
C        2.59389392      -0.10547883       0.12172759
H        3.17088639      -1.01494537      -0.02006665
H        2.89154646       0.64177576      -0.61412203
H        2.79746344       0.31352104       1.10736893
C       -3.01636379       0.79853381      -0.01309097
N       -1.86126220       0.64409644       0.02067107
10
Properties=species:S:1:pos:R:3 charge=-1 charge_a=0 charge_b=-1 selection_a=1-8 selection_b=9-10 scaling=0.85 benchmark_Eint=-26.144 benchmark_unit=kcal/mol group=OH-Na pbc="F F F"
C        1.10471041      -0.40034392      -0.01574483
O        0.69858668      -1.52337202      -0.25077405
O        0.38143280       0.67521514       0.14850699
H       -0.68671669       0.56302645       0.06911919
C        2.59389392      -0.10547883       0.12172759
H        3.17088639      -1.01494537      -0.02006665
H        2.89154646       0.64177576      -0.61412203
H        2.79746344       0.31352104       1.10736893
C       -3.08977288       0.80360069      -0.01611898
N       -1.93467130       0.64916332       0.01764306
10
Properties=species:S:1:pos:R:3 charge=-1 charge_a=0 charge_b=-1 selection_a=1-8 selection_b=9-10 scaling=0.9 benchmark_Eint=-28.963 benchmark_unit=kcal/mol group=OH-Na pbc="F F F"
C        1.10471041      -0.40034392      -0.01574483
O        0.69858668      -1.52337202      -0.25077405
O        0.38143280       0.67521514       0.14850699
H       -0.68671669       0.56302645       0.06911919
C        2.59389392      -0.10547883       0.12172759
H        3.17088639      -1.01494537      -0.02006665
H        2.89154646       0.64177576      -0.61412203
H        2.79746344       0.31352104       1.10736893
C       -3.16318198       0.80866756      -0.01914698
N       -2.00808039       0.65423019       0.01461505
10
Properties=species:S:1:pos:R:3 charge=-1 charge_a=0 charge_b=-1 selection_a=1-8 selection_b=9-10 scaling=0.95 benchmark_Eint=-30.352 benchmark_unit=kcal/mol group=OH-Na pbc="F F F"
C        1.10471041      -0.40034392      -0.01574483
O        0.69858668      -1.52337202      -0.25077405
O        0.38143280       0.67521514       0.14850699
H       -0.68671669       0.56302645       0.06911919
C        2.59389392      -0.10547883       0.12172759
H        3.17088639      -1.01494537      -0.02006665
H        2.89154646       0.64177576      -0.61412203
H        2.79746344       0.31352104       1.10736893
C       -3.23659107       0.81373443      -0.02217499
N       -2.08148949       0.65929706       0.01158705
10
Properties=species:S:1:pos:R:3 charge=-1 charge_a=0 charge_b=-1 selection_a=1-8 selection_b=9-10 scaling=1.0 benchmark_Eint=-30.752 benchmark_unit=kcal/mol group=OH-Na pbc="F F F"
C        1.10471041      -0.40034392      -0.01574483
O        0.69858668      -1.52337202      -0.25077405
O        0.38143280       0.67521514       0.14850699
H       -0.68671669       0.56302645       0.06911919
C        2.59389392      -0.10547883       0.12172759
H        3.17088639      -1.01494537      -0.02006665
H        2.89154646       0.64177576      -0.61412203
H        2.79746344       0.31352104       1.10736893
C       -3.31000017       0.81880131      -0.02520300
N       -2.15489858       0.66436394       0.00855904
10
Properties=species:S:1:pos:R:3 charge=-1 charge_a=0 charge_b=-1 selection_a=1-8 selection_b=9-10 scaling=1.05 benchmark_Eint=-30.474 benchmark_unit=kcal/mol group=OH-Na pbc="F F F"
C        1.10471041      -0.40034392      -0.01574483
O        0.69858668      -1.52337202      -0.25077405
O        0.38143280       0.67521514       0.14850699
H       -0.68671669       0.56302645       0.06911919
C        2.59389392      -0.10547883       0.12172759
H        3.17088639      -1.01494537      -0.02006665
H        2.89154646       0.64177576      -0.61412203
H        2.79746344       0.31352104       1.10736893
C       -3.38340926       0.82386818      -0.02823101
N       -2.22830767       0.66943081       0.00553103
10
Properties=species:S:1:pos:R:3 charge=-1 charge_a=0 charge_b=-1 selection_a=1-8 selection_b=9-10 scaling=1.1 benchmark_Eint=-29.739 benchmark_unit=kcal/mol group=OH-Na pbc="F F F"
C        1.10471041      -0.40034392      -0.01574483
O        0.69858668      -1.52337202      -0.25077405
O        0.38143280       0.67521514       0.14850699
H       -0.68671669       0.56302645       0.06911919
C        2.59389392      -0.10547883       0.12172759
H        3.17088639      -1.01494537      -0.02006665
H        2.89154646       0.64177576      -0.61412203
H        2.79746344       0.31352104       1.10736893
C       -3.45681836       0.82893506      -0.03125902
N       -2.30171677       0.67449769       0.00250302
10
Properties=species:S:1:pos:R:3 charge=-1 charge_a=0 charge_b=-1 selection_a=1-8 selection_b=9-10 scaling=1.25 benchmark_Eint=-26.149 benchmark_unit=kcal/mol group=OH-Na pbc="F F F"
C        1.10471041      -0.40034392      -0.01574483
O        0.69858668      -1.52337202      -0.25077405
O        0.38143280       0.67521514       0.14850699
H       -0.68671669       0.56302645       0.06911919
C        2.59389392      -0.10547883       0.12172759
H        3.17088639      -1.01494537      -0.02006665
H        2.89154646       0.64177576      -0.61412203
H        2.79746344       0.31352104       1.10736893
C       -3.67704564       0.84413568      -0.04034304
N       -2.52194405       0.68969831      -0.00658100
10
Properties=species:S:1:pos:R:3 charge=-1 charge_a=0 charge_b=-1 selection_a=1-8 selection_b=9-10 scaling=1.5 benchmark_Eint=-19.456 benchmark_unit=kcal/mol group=OH-Na pbc="F F F"
C        1.10471041      -0.40034392      -0.01574483
O        0.69858668      -1.52337202      -0.25077405
O        0.38143280       0.67521514       0.14850699
H       -0.68671669       0.56302645       0.06911919
C        2.59389392      -0.10547883       0.12172759
H        3.17088639      -1.01494537      -0.02006665
H        2.89154646       0.64177576      -0.61412203
H        2.79746344       0.31352104       1.10736893
C       -4.04409111       0.86947005      -0.05548308
N       -2.88898952       0.71503268      -0.02172104
10
Properties=species:S:1:pos:R:3 charge=-1 charge_a=0 charge_b=-1 selection_a=1-8 selection_b=9-10 scaling=2.0 benchmark_Eint=-10.419 benchmark_unit=kcal/mol group=OH-Na pbc="F F F"
C        1.10471041      -0.40034392      -0.01574483
O        0.69858668      -1.52337202      -0.25077405
O        0.38143280       0.67521514       0.14850699
H       -0.68671669       0.56302645       0.06911919
C        2.59389392      -0.10547883       0.12172759
H        3.17088639      -1.01494537      -0.02006665
H        2.89154646       0.64177576      -0.61412203
H        2.79746344       0.31352104       1.10736893
C       -4.77818206       0.92013879      -0.08576315
N       -3.62308047       0.76570142      -0.05200112
15
Properties=species:S:1:pos:R:3 charge=-1 charge_a=0 charge_b=-1 selection_a=1-13 selection_b=14-15 scaling=0.8 benchmark_Eint=-20.781 benchmark_unit=kcal/mol group=OH-Na pbc="F F F"
H        0.89794796      -2.28624298      -1.22760929
H        3.54308481       1.06931128      -0.76499784
H        3.11922949      -1.24579607      -1.55757554
H       -0.50322670       1.26628209       0.68177375
H       -1.81487182      -0.59330705       0.37329187
H        1.71220269       2.31415726       0.35677552
C        2.57445482       0.60994874      -0.62340477
C        2.33221888      -0.68728229      -1.06590584
C        1.09102790      -1.27863957      -0.88556081
C        0.04934481      -0.58228537      -0.25212309
C        0.29619653       0.72807189       0.19411807
C        1.54335478       1.30386496       0.00546362
O       -1.12455178      -1.18900754      -0.10071796
C       -3.39632015       0.87770930       1.50302935
N       -2.66794223       0.14514168       0.96008029
15
Properties=species:S:1:pos:R:3 charge=-1 charge_a=0 charge_b=-1 selection_a=1-13 selection_b=14-15 scaling=0.85 benchmark_Eint=-25.016 benchmark_unit=kcal/mol group=OH-Na pbc="F F F"
H        0.89794796      -2.28624298      -1.22760929
H        3.54308481       1.06931128      -0.76499784
H        3.11922949      -1.24579607      -1.55757554
H       -0.50322670       1.26628209       0.68177375
H       -1.81487182      -0.59330705       0.37329187
H        1.71220269       2.31415726       0.35677552
C        2.57445482       0.60994874      -0.62340477
C        2.33221888      -0.68728229      -1.06590584
C        1.09102790      -1.27863957      -0.88556081
C        0.04934481      -0.58228537      -0.25212309
C        0.29619653       0.72807189       0.19411807
C        1.54335478       1.30386496       0.00546362
O       -1.12455178      -1.18900754      -0.10071796
C       -3.44963705       0.92386235       1.53970362
N       -2.72125913       0.19129473       0.99675456
15
Properties=species:S:1:pos:R:3 charge=-1 charge_a=0 charge_b=-1 selection_a=1-13 selection_b=14-15 scaling=0.9 benchmark_Eint=-27.493 benchmark_unit=kcal/mol group=OH-Na pbc="F F F"
H        0.89794796      -2.28624298      -1.22760929
H        3.54308481       1.06931128      -0.76499784
H        3.11922949      -1.24579607      -1.55757554
H       -0.50322670       1.26628209       0.68177375
H       -1.81487182      -0.59330705       0.37329187
H        1.71220269       2.31415726       0.35677552
C        2.57445482       0.60994874      -0.62340477
C        2.33221888      -0.68728229      -1.06590584
C        1.09102790      -1.27863957      -0.88556081
C        0.04934481      -0.58228537      -0.25212309
C        0.29619653       0.72807189       0.19411807
C        1.54335478       1.30386496       0.00546362
O       -1.12455178      -1.18900754      -0.10071796
C       -3.50295395       0.97001540       1.57637790
N       -2.77457604       0.23744777       1.03342884
15
Properties=species:S:1:pos:R:3 charge=-1 charge_a=0 charge_b=-1 selection_a=1-13 selection_b=14-15 scaling=0.95 benchmark_Eint=-28.741 benchmark_unit=kcal/mol group=OH-Na pbc="F F F"
H        0.89794796      -2.28624298      -1.22760929
H        3.54308481       1.06931128      -0.76499784
H        3.11922949      -1.24579607      -1.55757554
H       -0.50322670       1.26628209       0.68177375
H       -1.81487182      -0.59330705       0.37329187
H        1.71220269       2.31415726       0.35677552
C        2.57445482       0.60994874      -0.62340477
C        2.33221888      -0.68728229      -1.06590584
C        1.09102790      -1.27863957      -0.88556081
C        0.04934481      -0.58228537      -0.25212309
C        0.29619653       0.72807189       0.19411807
C        1.54335478       1.30386496       0.00546362
O       -1.12455178      -1.18900754      -0.10071796
C       -3.55627085       1.01616844       1.61305217
N       -2.82789294       0.28360082       1.07010311
15
Properties=species:S:1:pos:R:3 charge=-1 charge_a=0 charge_b=-1 selection_a=1-13 selection_b=14-15 scaling=1.0 benchmark_Eint=-29.131 benchmark_unit=kcal/mol group=OH-Na pbc="F F F"
H        0.89794796      -2.28624298      -1.22760929
H        3.54308481       1.06931128      -0.76499784
H        3.11922949      -1.24579607      -1.55757554
H       -0.50322670       1.26628209       0.68177375
H       -1.81487182      -0.59330705       0.37329187
H        1.71220269       2.31415726       0.35677552
C        2.57445482       0.60994874      -0.62340477
C        2.33221888      -0.68728229      -1.06590584
C        1.09102790      -1.27863957      -0.88556081
C        0.04934481      -0.58228537      -0.25212309
C        0.29619653       0.72807189       0.19411807
C        1.54335478       1.30386496       0.00546362
O       -1.12455178      -1.18900754      -0.10071796
C       -3.60958775       1.06232149       1.64972645
N       -2.88120984       0.32975387       1.10677739
15
Properties=species:S:1:pos:R:3 charge=-1 charge_a=0 charge_b=-1 selection_a=1-13 selection_b=14-15 scaling=1.05 benchmark_Eint=-28.929 benchmark_unit=kcal/mol group=OH-Na pbc="F F F"
H        0.89794796      -2.28624298      -1.22760929
H        3.54308481       1.06931128      -0.76499784
H        3.11922949      -1.24579607      -1.55757554
H       -0.50322670       1.26628209       0.68177375
H       -1.81487182      -0.59330705       0.37329187
H        1.71220269       2.31415726       0.35677552
C        2.57445482       0.60994874      -0.62340477
C        2.33221888      -0.68728229      -1.06590584
C        1.09102790      -1.27863957      -0.88556081
C        0.04934481      -0.58228537      -0.25212309
C        0.29619653       0.72807189       0.19411807
C        1.54335478       1.30386496       0.00546362
O       -1.12455178      -1.18900754      -0.10071796
C       -3.66290465       1.10847454       1.68640073
N       -2.93452674       0.37590691       1.14345166
15
Properties=species:S:1:pos:R:3 charge=-1 charge_a=0 charge_b=-1 selection_a=1-13 selection_b=14-15 scaling=1.1 benchmark_Eint=-28.324 benchmark_unit=kcal/mol group=OH-Na pbc="F F F"
H        0.89794796      -2.28624298      -1.22760929
H        3.54308481       1.06931128      -0.76499784
H        3.11922949      -1.24579607      -1.55757554
H       -0.50322670       1.26628209       0.68177375
H       -1.81487182      -0.59330705       0.37329187
H        1.71220269       2.31415726       0.35677552
C        2.57445482       0.60994874      -0.62340477
C        2.33221888      -0.68728229      -1.06590584
C        1.09102790      -1.27863957      -0.88556081
C        0.04934481      -0.58228537      -0.25212309
C        0.29619653       0.72807189       0.19411807
C        1.54335478       1.30386496       0.00546362
O       -1.12455178      -1.18900754      -0.10071796
C       -3.71622156       1.15462758       1.72307500
N       -2.98784364       0.42205996       1.18012594
15
Properties=species:S:1:pos:R:3 charge=-1 charge_a=0 charge_b=-1 selection_a=1-13 selection_b=14-15 scaling=1.25 benchmark_Eint=-25.27 benchmark_unit=kcal/mol group=OH-Na pbc="F F F"
H        0.89794796      -2.28624298      -1.22760929
H        3.54308481       1.06931128      -0.76499784
H        3.11922949      -1.24579607      -1.55757554
H       -0.50322670       1.26628209       0.68177375
H       -1.81487182      -0.59330705       0.37329187
H        1.71220269       2.31415726       0.35677552
C        2.57445482       0.60994874      -0.62340477
C        2.33221888      -0.68728229      -1.06590584
C        1.09102790      -1.27863957      -0.88556081
C        0.04934481      -0.58228537      -0.25212309
C        0.29619653       0.72807189       0.19411807
C        1.54335478       1.30386496       0.00546362
O       -1.12455178      -1.18900754      -0.10071796
C       -3.87617226       1.29308672       1.83309783
N       -3.14779434       0.56051910       1.29014877
15
Properties=species:S:1:pos:R:3 charge=-1 charge_a=0 charge_b=-1 selection_a=1-13 selection_b=14-15 scaling=1.5 benchmark_Eint=-19.467 benchmark_unit=kcal/mol group=OH-Na pbc="F F F"
H        0.89794796      -2.28624298      -1.22760929
H        3.54308481       1.06931128      -0.76499784
H        3.11922949      -1.24579607      -1.55757554
H       -0.50322670       1.26628209       0.68177375
H       -1.81487182      -0.59330705       0.37329187
H        1.71220269       2.31415726       0.35677552
C        2.57445482       0.60994874      -0.62340477
C        2.33221888      -0.68728229      -1.06590584
C        1.09102790      -1.27863957      -0.88556081
C        0.04934481      -0.58228537      -0.25212309
C        0.29619653       0.72807189       0.19411807
C        1.54335478       1.30386496       0.00546362
O       -1.12455178      -1.18900754      -0.10071796
C       -4.14275676       1.52385195       2.01646921
N       -3.41437885       0.79128433       1.47352015
15
Properties=species:S:1:pos:R:3 charge=-1 charge_a=0 charge_b=-1 selection_a=1-13 selection_b=14-15 scaling=2.0 benchmark_Eint=-11.338 benchmark_unit=kcal/mol group=OH-Na pbc="F F F"
H        0.89794796      -2.28624298      -1.22760929
H        3.54308481       1.06931128      -0.76499784
H        3.11922949      -1.24579607      -1.55757554
H       -0.50322670       1.26628209       0.68177375
H       -1.81487182      -0.59330705       0.37329187
H        1.71220269       2.31415726       0.35677552
C        2.57445482       0.60994874      -0.62340477
C        2.33221888      -0.68728229      -1.06590584
C        1.09102790      -1.27863957      -0.88556081
C        0.04934481      -0.58228537      -0.25212309
C        0.29619653       0.72807189       0.19411807
C        1.54335478       1.30386496       0.00546362
O       -1.12455178      -1.18900754      -0.10071796
C       -4.67592577       1.98538241       2.38321197
N       -3.94754786       1.25281478       1.84026290
5
Properties=species:S:1:pos:R:3 charge=-1 charge_a=0 charge_b=-1 selection_a=1-3 selection_b=4-5 scaling=0.8 benchmark_Eint=-10.264 benchmark_unit=kcal/mol group=OH-Na pbc="F F F"
O       -0.19137534      -1.36503770      -1.40736105
H       -0.10360968      -0.59092826      -0.78645240
H       -0.13594395      -2.11368370      -0.81093448
C        0.15800053       1.07781440       1.17033344
N        0.03574508       0.37964477       0.24209902
5
Properties=species:S:1:pos:R:3 charge=-1 charge_a=0 charge_b=-1 selection_a=1-3 selection_b=4-5 scaling=0.85 benchmark_Eint=-13.453 benchmark_unit=kcal/mol group=OH-Na pbc="F F F"
O       -0.19137534      -1.36503770      -1.40736105
H       -0.10360968      -0.59092826      -0.78645240
H       -0.13594395      -2.11368370      -0.81093448
C        0.16671021       1.13847521       1.23461790
N        0.04445475       0.44030558       0.30638348
5
Properties=species:S:1:pos:R:3 charge=-1 charge_a=0 charge_b=-1 selection_a=1-3 selection_b=4-5 scaling=0.9 benchmark_Eint=-15.32 benchmark_unit=kcal/mol group=OH-Na pbc="F F F"
O       -0.19137534      -1.36503770      -1.40736105
H       -0.10360968      -0.59092826      -0.78645240
H       -0.13594395      -2.11368370      -0.81093448
C        0.17541988       1.19913603       1.29890236
N        0.05316442       0.50096640       0.37066795
5
Properties=species:S:1:pos:R:3 charge=-1 charge_a=0 charge_b=-1 selection_a=1-3 selection_b=4-5 scaling=0.95 benchmark_Eint=-16.266 benchmark_unit=kcal/mol group=OH-Na pbc="F F F"
O       -0.19137534      -1.36503770      -1.40736105
H       -0.10360968      -0.59092826      -0.78645240
H       -0.13594395      -2.11368370      -0.81093448
C        0.18412955       1.25979684       1.36318683
N        0.06187409       0.56162721       0.43495241
5
Properties=species:S:1:pos:R:3 charge=-1 charge_a=0 charge_b=-1 selection_a=1-3 selection_b=4-5 scaling=1.0 benchmark_Eint=-16.579 benchmark_unit=kcal/mol group=OH-Na pbc="F F F"
O       -0.19137534      -1.36503770      -1.40736105
H       -0.10360968      -0.59092826      -0.78645240
H       -0.13594395      -2.11368370      -0.81093448
C        0.19283922       1.32045766       1.42747129
N        0.07058377       0.62228803       0.49923688
5
Properties=species:S:1:pos:R:3 charge=-1 charge_a=0 charge_b=-1 selection_a=1-3 selection_b=4-5 scaling=1.05 benchmark_Eint=-16.46 benchmark_unit=kcal/mol group=OH-Na pbc="F F F"
O       -0.19137534      -1.36503770      -1.40736105
H       -0.10360968      -0.59092826      -0.78645240
H       -0.13594395      -2.11368370      -0.81093448
C        0.20154889       1.38111847       1.49175575
N        0.07929344       0.68294884       0.56352134
5
Properties=species:S:1:pos:R:3 charge=-1 charge_a=0 charge_b=-1 selection_a=1-3 selection_b=4-5 scaling=1.1 benchmark_Eint=-16.059 benchmark_unit=kcal/mol group=OH-Na pbc="F F F"
O       -0.19137534      -1.36503770      -1.40736105
H       -0.10360968      -0.59092826      -0.78645240
H       -0.13594395      -2.11368370      -0.81093448
C        0.21025857       1.44177929       1.55604022
N        0.08800311       0.74360965       0.62780580
5
Properties=species:S:1:pos:R:3 charge=-1 charge_a=0 charge_b=-1 selection_a=1-3 selection_b=4-5 scaling=1.25 benchmark_Eint=-14.048 benchmark_unit=kcal/mol group=OH-Na pbc="F F F"
O       -0.19137534      -1.36503770      -1.40736105
H       -0.10360968      -0.59092826      -0.78645240
H       -0.13594395      -2.11368370      -0.81093448
C        0.23638758       1.62376173       1.74889361
N        0.11413213       0.92559210       0.82065919
5
Properties=species:S:1:pos:R:3 charge=-1 charge_a=0 charge_b=-1 selection_a=1-3 selection_b=4-5 scaling=1.5 benchmark_Eint=-10.445 benchmark_unit=kcal/mol group=OH-Na pbc="F F F"
O       -0.19137534      -1.36503770      -1.40736105
H       -0.10360968      -0.59092826      -0.78645240
H       -0.13594395      -2.11368370      -0.81093448
C        0.27993595       1.92706580       2.07031593
N        0.15768049       1.22889617       1.14208151
5
Properties=species:S:1:pos:R:3 charge=-1 charge_a=0 charge_b=-1 selection_a=1-3 selection_b=4-5 scaling=2.0 benchmark_Eint=-5.91 benchmark_unit=kcal/mol group=OH-Na pbc="F F F"
O       -0.19137534      -1.36503770      -1.40736105
H       -0.10360968      -0.59092826      -0.78645240
H       -0.13594395      -2.11368370      -0.81093448
C        0.36703267       2.53367395       2.71316056
N        0.24477721       1.83550431       1.78492615
8
Properties=species:S:1:pos:R:3 charge=-1 charge_a=0 charge_b=-1 selection_a=1-6 selection_b=7-8 scaling=0.8 benchmark_Eint=-12.344 benchmark_unit=kcal/mol group=OH-Ca pbc="F F F"
O        0.67937100      -1.38230964       0.10013318
H        0.57146807      -0.38399313       0.07807359
C       -0.60768295      -1.92759275       0.02419215
H       -0.53982913      -2.95859460      -0.33837507
H       -1.11697948      -1.95192250       1.00011109
H       -1.25175079      -1.36605567      -0.66297799
C        0.20825905       1.03810955      -0.01357842
N       -0.09689854       2.16035762      -0.08645322
8
Properties=species:S:1:pos:R:3 charge=-1 charge_a=0 charge_b=-1 selection_a=1-6 selection_b=7-8 scaling=0.85 benchmark_Eint=-15.66 benchmark_unit=kcal/mol group=OH-Ca pbc="F F F"
O        0.67937100      -1.38230964       0.10013318
H        0.57146807      -0.38399313       0.07807359
C       -0.60768295      -1.92759275       0.02419215
H       -0.53982913      -2.95859460      -0.33837507
H       -1.11697948      -1.95192250       1.00011109
H       -1.25175079      -1.36605567      -0.66297799
C        0.18555848       1.12699097      -0.01930667
N       -0.11959910       2.24923904      -0.09218147
8
Properties=species:S:1:pos:R:3 charge=-1 charge_a=0 charge_b=-1 selection_a=1-6 selection_b=7-8 scaling=0.9 benchmark_Eint=-17.605 benchmark_unit=kcal/mol group=OH-Ca pbc="F F F"
O        0.67937100      -1.38230964       0.10013318
H        0.57146807      -0.38399313       0.07807359
C       -0.60768295      -1.92759275       0.02419215
H       -0.53982913      -2.95859460      -0.33837507
H       -1.11697948      -1.95192250       1.00011109
H       -1.25175079      -1.36605567      -0.66297799
C        0.16285792       1.21587239      -0.02503492
N       -0.14229966       2.33812046      -0.09790972
8
Properties=species:S:1:pos:R:3 charge=-1 charge_a=0 charge_b=-1 selection_a=1-6 selection_b=7-8 scaling=0.95 benchmark_Eint=-18.589 benchmark_unit=kcal/mol group=OH-Ca pbc="F F F"
O        0.67937100      -1.38230964       0.10013318
H        0.57146807      -0.38399313       0.07807359
C       -0.60768295      -1.92759275       0.02419215
H       -0.53982913      -2.95859460      -0.33837507
H       -1.11697948      -1.95192250       1.00011109
H       -1.25175079      -1.36605567      -0.66297799
C        0.14015736       1.30475381      -0.03076317
N       -0.16500023       2.42700187      -0.10363797
8
Properties=species:S:1:pos:R:3 charge=-1 charge_a=0 charge_b=-1 selection_a=1-6 selection_b=7-8 scaling=1.0 benchmark_Eint=-18.903 benchmark_unit=kcal/mol group=OH-Ca pbc="F F F"
O        0.67937100      -1.38230964       0.10013318
H        0.57146807      -0.38399313       0.07807359
C       -0.60768295      -1.92759275       0.02419215
H       -0.53982913      -2.95859460      -0.33837507
H       -1.11697948      -1.95192250       1.00011109
H       -1.25175079      -1.36605567      -0.66297799
C        0.11745679       1.39363522      -0.03649142
N       -0.18770079       2.51588329      -0.10936622
8
Properties=species:S:1:pos:R:3 charge=-1 charge_a=0 charge_b=-1 selection_a=1-6 selection_b=7-8 scaling=1.05 benchmark_Eint=-18.756 benchmark_unit=kcal/mol group=OH-Ca pbc="F F F"
O        0.67937100      -1.38230964       0.10013318
H        0.57146807      -0.38399313       0.07807359
C       -0.60768295      -1.92759275       0.02419215
H       -0.53982913      -2.95859460      -0.33837507
H       -1.11697948      -1.95192250       1.00011109
H       -1.25175079      -1.36605567      -0.66297799
C        0.09475623       1.48251664      -0.04221967
N       -0.21040136       2.60476471      -0.11509447
8
Properties=species:S:1:pos:R:3 charge=-1 charge_a=0 charge_b=-1 selection_a=1-6 selection_b=7-8 scaling=1.1 benchmark_Eint=-18.3 benchmark_unit=kcal/mol group=OH-Ca pbc="F F F"
O        0.67937100      -1.38230964       0.10013318
H        0.57146807      -0.38399313       0.07807359
C       -0.60768295      -1.92759275       0.02419215
H       -0.53982913      -2.95859460      -0.33837507
H       -1.11697948      -1.95192250       1.00011109
H       -1.25175079      -1.36605567      -0.66297799
C        0.07205566       1.57139806      -0.04794792
N       -0.23310192       2.69364613      -0.12082272
8
Properties=species:S:1:pos:R:3 charge=-1 charge_a=0 charge_b=-1 selection_a=1-6 selection_b=7-8 scaling=1.25 benchmark_Eint=-16.02 benchmark_unit=kcal/mol group=OH-Ca pbc="F F F"
O        0.67937100      -1.38230964       0.10013318
H        0.57146807      -0.38399313       0.07807359
C       -0.60768295      -1.92759275       0.02419215
H       -0.53982913      -2.95859460      -0.33837507
H       -1.11697948      -1.95192250       1.00011109
H       -1.25175079      -1.36605567      -0.66297799
C        0.00395397       1.83804231      -0.06513267
N       -0.30120361       2.96029038      -0.13800747
8
Properties=species:S:1:pos:R:3 charge=-1 charge_a=0 charge_b=-1 selection_a=1-6 selection_b=7-8 scaling=1.5 benchmark_Eint=-11.839 benchmark_unit=kcal/mol group=OH-Ca pbc="F F F"
O        0.67937100      -1.38230964       0.10013318
H        0.57146807      -0.38399313       0.07807359
C       -0.60768295      -1.92759275       0.02419215
H       -0.53982913      -2.95859460      -0.33837507
H       -1.11697948      -1.95192250       1.00011109
H       -1.25175079      -1.36605567      -0.66297799
C       -0.10954885       2.28244940      -0.09377392
N       -0.41470643       3.40469747      -0.16664873
8
Properties=species:S:1:pos:R:3 charge=-1 charge_a=0 charge_b=-1 selection_a=1-6 selection_b=7-8 scaling=2.0 benchmark_Eint=-6.448 benchmark_unit=kcal/mol group=OH-Ca pbc="F F F"
O        0.67937100      -1.38230964       0.10013318
H        0.57146807      -0.38399313       0.07807359
C       -0.60768295      -1.92759275       0.02419215
H       -0.53982913      -2.95859460      -0.33837507
H       -1.11697948      -1.95192250       1.00011109
H       -1.25175079      -1.36605567      -0.66297799
C       -0.33655449       3.17126358      -0.15105643
N       -0.64171207       4.29351165      -0.22393123
5
Properties=species:S:1:pos:R:3 charge=-1 charge_a=0 charge_b=-1 selection_a=1-3 selection_b=4-5 scaling=0.8 benchmark_Eint=-10.584 benchmark_unit=kcal/mol group=OH-Ca pbc="F F F"
O        0.22031197      -1.71518031      -1.18281696
H        0.12723991      -0.83450809      -0.71606369
H        0.13765885      -2.33823196      -0.45817407
C       -0.03427224       0.38877523       0.15981961
N       -0.16636510       1.28644218       0.89199933
5
Properties=species:S:1:pos:R:3 charge=-1 charge_a=0 charge_b=-1 selection_a=1-3 selection_b=4-5 scaling=0.85 benchmark_Eint=-13.651 benchmark_unit=kcal/mol group=OH-Ca pbc="F F F"
O        0.22031197      -1.71518031      -1.18281696
H        0.12723991      -0.83450809      -0.71606369
H        0.13765885      -2.33823196      -0.45817407
C       -0.04436675       0.46523043       0.21456231
N       -0.17645961       1.36289739       0.94674203
5
Properties=species:S:1:pos:R:3 charge=-1 charge_a=0 charge_b=-1 selection_a=1-3 selection_b=4-5 scaling=0.9 benchmark_Eint=-15.453 benchmark_unit=kcal/mol group=OH-Ca pbc="F F F"
O        0.22031197      -1.71518031      -1.18281696
H        0.12723991      -0.83450809      -0.71606369
H        0.13765885      -2.33823196      -0.45817407
C       -0.05446126       0.54168564       0.26930502
N       -0.18655412       1.43935260       1.00148474
5
Properties=species:S:1:pos:R:3 charge=-1 charge_a=0 charge_b=-1 selection_a=1-3 selection_b=4-5 scaling=0.95 benchmark_Eint=-16.369 benchmark_unit=kcal/mol group=OH-Ca pbc="F F F"
O        0.22031197      -1.71518031      -1.18281696
H        0.12723991      -0.83450809      -0.71606369
H        0.13765885      -2.33823196      -0.45817407
C       -0.06455576       0.61814085       0.32404773
N       -0.19664863       1.51580780       1.05622744
5
Properties=species:S:1:pos:R:3 charge=-1 charge_a=0 charge_b=-1 selection_a=1-3 selection_b=4-5 scaling=1.0 benchmark_Eint=-16.672 benchmark_unit=kcal/mol group=OH-Ca pbc="F F F"
O        0.22031197      -1.71518031      -1.18281696
H        0.12723991      -0.83450809      -0.71606369
H        0.13765885      -2.33823196      -0.45817407
C       -0.07465027       0.69459605       0.37879043
N       -0.20674314       1.59226301       1.11097015
5
Properties=species:S:1:pos:R:3 charge=-1 charge_a=0 charge_b=-1 selection_a=1-3 selection_b=4-5 scaling=1.05 benchmark_Eint=-16.555 benchmark_unit=kcal/mol group=OH-Ca pbc="F F F"
O        0.22031197      -1.71518031      -1.18281696
H        0.12723991      -0.83450809      -0.71606369
H        0.13765885      -2.33823196      -0.45817407
C       -0.08474478       0.77105126       0.43353314
N       -0.21683765       1.66871822       1.16571286
5
Properties=species:S:1:pos:R:3 charge=-1 charge_a=0 charge_b=-1 selection_a=1-3 selection_b=4-5 scaling=1.1 benchmark_Eint=-16.156 benchmark_unit=kcal/mol group=OH-Ca pbc="F F F"
O        0.22031197      -1.71518031      -1.18281696
H        0.12723991      -0.83450809      -0.71606369
H        0.13765885      -2.33823196      -0.45817407
C       -0.09483929       0.84750647       0.48827584
N       -0.22693216       1.74517343       1.22045556
5
Properties=species:S:1:pos:R:3 charge=-1 charge_a=0 charge_b=-1 selection_a=1-3 selection_b=4-5 scaling=1.25 benchmark_Eint=-14.147 benchmark_unit=kcal/mol group=OH-Ca pbc="F F F"
O        0.22031197      -1.71518031      -1.18281696
H        0.12723991      -0.83450809      -0.71606369
H        0.13765885      -2.33823196      -0.45817407
C       -0.12512282       1.07687209       0.65250396
N       -0.25721568       1.97453905       1.38468368
5
Properties=species:S:1:pos:R:3 charge=-1 charge_a=0 charge_b=-1 selection_a=1-3 selection_b=4-5 scaling=1.5 benchmark_Eint=-10.488 benchmark_unit=kcal/mol group=OH-Ca pbc="F F F"
O        0.22031197      -1.71518031      -1.18281696
H        0.12723991      -0.83450809      -0.71606369
H        0.13765885      -2.33823196      -0.45817407
C       -0.17559536       1.45914813       0.92621749
N       -0.30768823       2.35681508       1.65839721
5
Properties=species:S:1:pos:R:3 charge=-1 charge_a=0 charge_b=-1 selection_a=1-3 selection_b=4-5 scaling=2.0 benchmark_Eint=-5.816 benchmark_unit=kcal/mol group=OH-Ca pbc="F F F"
O        0.22031197      -1.71518031      -1.18281696
H        0.12723991      -0.83450809      -0.71606369
H        0.13765885      -2.33823196      -0.45817407
C       -0.27654045       2.22370020       1.47364455
N       -0.40863332       3.12136716       2.20582427
8
Properties=species:S:1:pos:R:3 charge=-2 charge_a=0 charge_b=-2 selection_a=1-4 selection_b=5-8 scaling=0.8 benchmark_Eint=-19.718 benchmark_unit=kcal/mol group=NH-Oa pbc="F F F"
N       -0.95776423       2.20808191      -0.97178951
H       -0.09792639       1.76172898      -0.54194836
H       -1.42225608       2.61961031      -0.16261431
H       -1.43835905       1.30512640      -1.07398364
C        0.06863714      -0.37399438       0.10443435
O        0.71459390       0.77216962       0.07685872
O       -1.08830471      -0.46981981      -0.48781298
O        0.58533961      -1.38540329       0.71527260
8
Properties=species:S:1:pos:R:3 charge=-2 charge_a=0 charge_b=-2 selection_a=1-4 selection_b=5-8 scaling=0.85 benchmark_Eint=-23.023 benchmark_unit=kcal/mol group=NH-Oa pbc="F F F"
N       -0.95776423       2.20808191      -0.97178951
H       -0.09792639       1.76172898      -0.54194836
H       -1.42225608       2.61961031      -0.16261431
H       -1.43835905       1.30512640      -1.07398364
C        0.11941965      -0.43584184       0.14310980
O        0.76537642       0.71032216       0.11553416
O       -1.03752219      -0.53166727      -0.44913754
O        0.63612213      -1.44725075       0.75394804
8
Properties=species:S:1:pos:R:3 charge=-2 charge_a=0 charge_b=-2 selection_a=1-4 selection_b=5-8 scaling=0.9 benchmark_Eint=-24.944 benchmark_unit=kcal/mol group=NH-Oa pbc="F F F"
N       -0.95776423       2.20808191      -0.97178951
H       -0.09792639       1.76172898      -0.54194836
H       -1.42225608       2.61961031      -0.16261431
H       -1.43835905       1.30512640      -1.07398364
C        0.17020217      -0.49768930       0.18178524
O        0.81615894       0.64847470       0.15420960
O       -0.98673967      -0.59351473      -0.41046210
O        0.68690464      -1.50909821       0.79262348
8
Properties=species:S:1:pos:R:3 charge=-2 charge_a=0 charge_b=-2 selection_a=1-4 selection_b=5-8 scaling=0.95 benchmark_Eint=-25.874 benchmark_unit=kcal/mol group=NH-Oa pbc="F F F"
N       -0.95776423       2.20808191      -0.97178951
H       -0.09792639       1.76172898      -0.54194836
H       -1.42225608       2.61961031      -0.16261431
H       -1.43835905       1.30512640      -1.07398364
C        0.22098469      -0.55953676       0.22046068
O        0.86694145       0.58662724       0.19288504
O       -0.93595715      -0.65536219      -0.37178666
O        0.73768716      -1.57094567       0.83129892
8
Properties=species:S:1:pos:R:3 charge=-2 charge_a=0 charge_b=-2 selection_a=1-4 selection_b=5-8 scaling=1.0 benchmark_Eint=-26.108 benchmark_unit=kcal/mol group=NH-Oa pbc="F F F"
N       -0.95776423       2.20808191      -0.97178951
H       -0.09792639       1.76172898      -0.54194836
H       -1.42225608       2.61961031      -0.16261431
H       -1.43835905       1.30512640      -1.07398364
C        0.27176721      -0.62138423       0.25913612
O        0.91772397       0.52477977       0.23156049
O       -0.88517463      -0.71720965      -0.33311122
O        0.78846968      -1.63279313       0.86997437
8
Properties=species:S:1:pos:R:3 charge=-2 charge_a=0 charge_b=-2 selection_a=1-4 selection_b=5-8 scaling=1.05 benchmark_Eint=-25.859 benchmark_unit=kcal/mol group=NH-Oa pbc="F F F"
N       -0.95776423       2.20808191      -0.97178951
H       -0.09792639       1.76172898      -0.54194836
H       -1.42225608       2.61961031      -0.16261431
H       -1.43835905       1.30512640      -1.07398364
C        0.32254973      -0.68323169       0.29781157
O        0.96850649       0.46293231       0.27023593
O       -0.83439212      -0.77905711      -0.29443577
O        0.83925220      -1.69464059       0.90864981
8
Properties=species:S:1:pos:R:3 charge=-2 charge_a=0 charge_b=-2 selection_a=1-4 selection_b=5-8 scaling=1.1 benchmark_Eint=-25.283 benchmark_unit=kcal/mol group=NH-Oa pbc="F F F"
N       -0.95776423       2.20808191      -0.97178951
H       -0.09792639       1.76172898      -0.54194836
H       -1.42225608       2.61961031      -0.16261431
H       -1.43835905       1.30512640      -1.07398364
C        0.37333225      -0.74507915       0.33648701
O        1.01928901       0.40108485       0.30891137
O       -0.78360960      -0.84090457      -0.25576033
O        0.89003472      -1.75648805       0.94732525
8
Properties=species:S:1:pos:R:3 charge=-2 charge_a=0 charge_b=-2 selection_a=1-4 selection_b=5-8 scaling=1.25 benchmark_Eint=-22.581 benchmark_unit=kcal/mol group=NH-Oa pbc="F F F"
N       -0.95776423       2.20808191      -0.97178951
H       -0.09792639       1.76172898      -0.54194836
H       -1.42225608       2.61961031      -0.16261431
H       -1.43835905       1.30512640      -1.07398364
C        0.52567980      -0.93062153       0.45251334
O        1.17163656       0.21554247       0.42493770
O       -0.63126204      -1.02644696      -0.13973400
O        1.04238227      -1.94203043       1.06335158
8
Properties=species:S:1:pos:R:3 charge=-2 charge_a=0 charge_b=-2 selection_a=1-4 selection_b=5-8 scaling=1.5 benchmark_Eint=-17.706 benchmark_unit=kcal/mol group=NH-Oa pbc="F F F"
N       -0.95776423       2.20808191      -0.97178951
H       -0.09792639       1.76172898      -0.54194836
H       -1.42225608       2.61961031      -0.16261431
H       -1.43835905       1.30512640      -1.07398364
C        0.77959239      -1.23985883       0.64589055
O        1.42554915      -0.09369483       0.61831491
O       -0.37734946      -1.33568426       0.05364321
O        1.29629486      -2.25126774       1.25672879
8
Properties=species:S:1:pos:R:3 charge=-2 charge_a=0 charge_b=-2 selection_a=1-4 selection_b=5-8 scaling=2.0 benchmark_Eint=-10.695 benchmark_unit=kcal/mol group=NH-Oa pbc="F F F"
N       -0.95776423       2.20808191      -0.97178951
H       -0.09792639       1.76172898      -0.54194836
H       -1.42225608       2.61961031      -0.16261431
H       -1.43835905       1.30512640      -1.07398364
C        1.28741757      -1.85833344       1.03264497
O        1.93337433      -0.71216943       1.00506934
O        0.13047572      -1.95415886       0.44039764
O        1.80412004      -2.86974234       1.64348322
10
Properties=species:S:1:pos:R:3 charge=-2 charge_a=0 charge_b=-2 selection_a=1-4 selection_b=5-10 scaling=0.8 benchmark_Eint=-12.056 benchmark_unit=kcal/mol group=NH-Oa pbc="F F F"
N       -1.31091832       3.18554896       0.25476429
H       -0.96976471       2.64620009      -0.55268468
H       -0.91822370       2.55744609       0.96852239
H       -2.30649469       2.97487123       0.27611217
C       -0.10913000       0.53338219       0.04036935
O       -0.29865593       1.16488784      -1.04065692
O       -0.21021329       1.01701952       1.20595784
C        0.27805128      -0.97750167      -0.07447166
O        1.50827104      -1.24328226      -0.14201547
O       -0.67633501      -1.80144396      -0.08954764
10
Properties=species:S:1:pos:R:3 charge=-2 charge_a=0 charge_b=-2 selection_a=1-4 selection_b=5-10 scaling=0.85 benchmark_Eint=-15.39 benchmark_unit=kcal/mol group=NH-Oa pbc="F F F"
N       -1.31091832       3.18554896       0.25476429
H       -0.96976471       2.64620009      -0.55268468
H       -0.91822370       2.55744609       0.96852239
H       -2.30649469       2.97487123       0.27611217
C       -0.06539913       0.43756503       0.03242500
O       -0.25492506       1.06907067      -1.04860127
O       -0.16648241       0.92120236       1.19801350
C        0.32178216      -1.07331883      -0.08241600
O        1.55200191      -1.33909942      -0.14995981
O       -0.63260413      -1.89726112      -0.09749198
10
Properties=species:S:1:pos:R:3 charge=-2 charge_a=0 charge_b=-2 selection_a=1-4 selection_b=5-10 scaling=0.9 benchmark_Eint=-17.249 benchmark_unit=kcal/mol group=NH-Oa pbc="F F F"
N       -1.31091832       3.18554896       0.25476429
H       -0.96976471       2.64620009      -0.55268468
H       -0.91822370       2.55744609       0.96852239
H       -2.30649469       2.97487123       0.27611217
C       -0.02166825       0.34174787       0.02448066
O       -0.21119418       0.97325351      -1.05654561
O       -0.12275154       0.82538519       1.19006916
C        0.36551303      -1.16913599      -0.09036034
O        1.59573279      -1.43491658      -0.15790416
O       -0.58887326      -1.99307828      -0.10543632
10
Properties=species:S:1:pos:R:3 charge=-2 charge_a=0 charge_b=-2 selection_a=1-4 selection_b=5-10 scaling=0.95 benchmark_Eint=-18.106 benchmark_unit=kcal/mol group=NH-Oa pbc="F F F"
N       -1.31091832       3.18554896       0.25476429
H       -0.96976471       2.64620009      -0.55268468
H       -0.91822370       2.55744609       0.96852239
H       -2.30649469       2.97487123       0.27611217
C        0.02206262       0.24593071       0.01653632
O       -0.16746331       0.87743635      -1.06448995
O       -0.07902066       0.72956803       1.18212482
C        0.40924391      -1.26495315      -0.09830468
O        1.63946366      -1.53073374      -0.16584850
O       -0.54514238      -2.08889544      -0.11338067
10
Properties=species:S:1:pos:R:3 charge=-2 charge_a=0 charge_b=-2 selection_a=1-4 selection_b=5-10 scaling=1.0 benchmark_Eint=-18.292 benchmark_unit=kcal/mol group=NH-Oa pbc="F F F"
N       -1.31091832       3.18554896       0.25476429
H       -0.96976471       2.64620009      -0.55268468
H       -0.91822370       2.55744609       0.96852239
H       -2.30649469       2.97487123       0.27611217
C        0.06579350       0.15011355       0.00859198
O       -0.12373243       0.78161919      -1.07243429
O       -0.03528979       0.63375087       1.17418048
C        0.45297478      -1.36077031      -0.10624902
O        1.68319454      -1.62655091      -0.17379284
O       -0.50141151      -2.18471261      -0.12132501
10
Properties=species:S:1:pos:R:3 charge=-2 charge_a=0 charge_b=-2 selection_a=1-4 selection_b=5-10 scaling=1.05 benchmark_Eint=-18.042 benchmark_unit=kcal/mol group=NH-Oa pbc="F F F"
N       -1.31091832       3.18554896       0.25476429
H       -0.96976471       2.64620009      -0.55268468
H       -0.91822370       2.55744609       0.96852239
H       -2.30649469       2.97487123       0.27611217
C        0.10952437       0.05429638       0.00064764
O       -0.08000156       0.68580203      -1.08037863
O        0.00844109       0.53793371       1.16623614
C        0.49670566      -1.45658748      -0.11419337
O        1.72692541      -1.72236807      -0.18173718
O       -0.45768063      -2.28052977      -0.12926935
10
Properties=species:S:1:pos:R:3 charge=-2 charge_a=0 charge_b=-2 selection_a=1-4 selection_b=5-10 scaling=1.1 benchmark_Eint=-17.518 benchmark_unit=kcal/mol group=NH-Oa pbc="F F F"
N       -1.31091832       3.18554896       0.25476429
H       -0.96976471       2.64620009      -0.55268468
H       -0.91822370       2.55744609       0.96852239
H       -2.30649469       2.97487123       0.27611217
C        0.15325525      -0.04152078      -0.00729670
O       -0.03627068       0.58998487      -1.08832297
O        0.05217196       0.44211655       1.15829180
C        0.54043653      -1.55240464      -0.12213771
O        1.77065629      -1.81818523      -0.18968152
O       -0.41394975      -2.37634693      -0.13721369
10
Properties=species:S:1:pos:R:3 charge=-2 charge_a=0 charge_b=-2 selection_a=1-4 selection_b=5-10 scaling=1.25 benchmark_Eint=-15.247 benchmark_unit=kcal/mol group=NH-Oa pbc="F F F"
N       -1.31091832       3.18554896       0.25476429
H       -0.96976471       2.64620009      -0.55268468
H       -0.91822370       2.55744609       0.96852239
H       -2.30649469       2.97487123       0.27611217
C        0.28444788      -0.32897226      -0.03112973
O        0.09492195       0.30253338      -1.11215600
O        0.18336459       0.15466506       1.13445877
C        0.67162916      -1.83985612      -0.14597073
O        1.90184892      -2.10563671      -0.21351454
O       -0.28275713      -2.66379842      -0.16104671
10
Properties=species:S:1:pos:R:3 charge=-2 charge_a=0 charge_b=-2 selection_a=1-4 selection_b=5-10 scaling=1.5 benchmark_Eint=-11.478 benchmark_unit=kcal/mol group=NH-Oa pbc="F F F"
N       -1.31091832       3.18554896       0.25476429
H       -0.96976471       2.64620009      -0.55268468
H       -0.91822370       2.55744609       0.96852239
H       -2.30649469       2.97487123       0.27611217
C        0.50310226      -0.80805807      -0.07085143
O        0.31357633      -0.17655243      -1.15187770
O        0.40201897      -0.32442075       1.09473707
C        0.89028354      -2.31894193      -0.18569244
O        2.12050330      -2.58472252      -0.25323625
O       -0.06410275      -3.14288422      -0.20076842
10
Properties=species:S:1:pos:R:3 charge=-2 charge_a=0 charge_b=-2 selection_a=1-4 selection_b=5-10 scaling=2.0 benchmark_Eint=-6.803 benchmark_unit=kcal/mol group=NH-Oa pbc="F F F"
N       -1.31091832       3.18554896       0.25476429
H       -0.96976471       2.64620009      -0.55268468
H       -0.91822370       2.55744609       0.96852239
H       -2.30649469       2.97487123       0.27611217
C        0.94041102      -1.76622969      -0.15029484
O        0.75088509      -1.13472404      -1.23132111
O        0.83932773      -1.28259236       1.01529366
C        1.32759230      -3.27711355      -0.26513585
O        2.55781206      -3.54289414      -0.33267966
O        0.37320601      -4.10105584      -0.28021183
17
Properties=species:S:1:pos:R:3 charge=-1 charge_a=0 charge_b=-1 selection_a=1-10 selection_b=11-17 scaling=0.8 benchmark_Eint=-19.683 benchmark_unit=kcal/mol group=NH-Oa pbc="F F F"
H       -1.12079509      -0.37455034       1.53282858
H        0.09392149      -1.85014652       3.49851629
H        2.61393765      -2.32439552       2.58799364
H        2.75382187      -1.11635896       0.15720551
N        0.73973695      -0.57136476       0.56486495
C       -0.12590782      -0.77909677       1.59235195
C        0.51769080      -1.52419592       2.56303897
C        1.83484858      -1.77255999       2.08807433
C        1.93156254      -1.16652230       0.84940901
H        0.49908329      -0.03024633      -0.30400884
C       -1.47098318       1.88285424      -2.56467943
C       -1.00663182       1.07193611      -1.33664327
O        0.18835202       0.65434513      -1.39743004
O       -1.81899928       0.89689474      -0.41106232
H       -1.38335377       1.26788842      -3.46209210
H       -0.81665947       2.74551179      -2.70165687
H       -2.50020642       2.21803374      -2.45004005
17
Properties=species:S:1:pos:R:3 charge=-1 charge_a=0 charge_b=-1 selection_a=1-10 selection_b=11-17 scaling=0.85 benchmark_Eint=-23.17 benchmark_unit=kcal/mol group=NH-Oa pbc="F F F"
H       -1.12079509      -0.37455034       1.53282858
H        0.09392149      -1.85014652       3.49851629
H        2.61393765      -2.32439552       2.58799364
H        2.75382187      -1.11635896       0.15720551
N        0.73973695      -0.57136476       0.56486495
C       -0.12590782      -0.77909677       1.59235195
C        0.51769080      -1.52419592       2.56303897
C        1.83484858      -1.77255999       2.08807433
C        1.93156254      -1.16652230       0.84940901
H        0.49908329      -0.03024633      -0.30400884
C       -1.49040388       1.92564121      -2.63301825
C       -1.02605253       1.11472307      -1.40498209
O        0.16893132       0.69713209      -1.46576886
O       -1.83841998       0.93968171      -0.47940115
H       -1.40277447       1.31067539      -3.53043092
H       -0.83608017       2.78829876      -2.76999569
H       -2.51962712       2.26082070      -2.51837887
17
Properties=species:S:1:pos:R:3 charge=-1 charge_a=0 charge_b=-1 selection_a=1-10 selection_b=11-17 scaling=0.9 benchmark_Eint=-25.176 benchmark_unit=kcal/mol group=NH-Oa pbc="F F F"
H       -1.12079509      -0.37455034       1.53282858
H        0.09392149      -1.85014652       3.49851629
H        2.61393765      -2.32439552       2.58799364
H        2.75382187      -1.11635896       0.15720551
N        0.73973695      -0.57136476       0.56486495
C       -0.12590782      -0.77909677       1.59235195
C        0.51769080      -1.52419592       2.56303897
C        1.83484858      -1.77255999       2.08807433
C        1.93156254      -1.16652230       0.84940901
H        0.49908329      -0.03024633      -0.30400884
C       -1.50982459       1.96842817      -2.70135707
C       -1.04547323       1.15751004      -1.47332092
O        0.14951061       0.73991906      -1.53410769
O       -1.85784069       0.98246867      -0.54773997
H       -1.42219517       1.35346236      -3.59876975
H       -0.85550088       2.83108572      -2.83833452
H       -2.53904783       2.30360767      -2.58671770
17
Properties=species:S:1:pos:R:3 charge=-1 charge_a=0 charge_b=-1 selection_a=1-10 selection_b=11-17 scaling=0.95 benchmark_Eint=-26.139 benchmark_unit=kcal/mol group=NH-Oa pbc="F F F"
H       -1.12079509      -0.37455034       1.53282858
H        0.09392149      -1.85014652       3.49851629
H        2.61393765      -2.32439552       2.58799364
H        2.75382187      -1.11635896       0.15720551
N        0.73973695      -0.57136476       0.56486495
C       -0.12590782      -0.77909677       1.59235195
C        0.51769080      -1.52419592       2.56303897
C        1.83484858      -1.77255999       2.08807433
C        1.93156254      -1.16652230       0.84940901
H        0.49908329      -0.03024633      -0.30400884
C       -1.52924529       2.01121514      -2.76969590
C       -1.06489393       1.20029700      -1.54165974
O        0.13008991       0.78270602      -1.60244651
O       -1.87726139       1.02525564      -0.61607879
H       -1.44161588       1.39624932      -3.66710857
H       -0.87492158       2.87387269      -2.90667334
H       -2.55846853       2.34639464      -2.65505652
17
Properties=species:S:1:pos:R:3 charge=-1 charge_a=0 charge_b=-1 selection_a=1-10 selection_b=11-17 scaling=1.0 benchmark_Eint=-26.375 benchmark_unit=kcal/mol group=NH-Oa pbc="F F F"
H       -1.12079509      -0.37455034       1.53282858
H        0.09392149      -1.85014652       3.49851629
H        2.61393765      -2.32439552       2.58799364
H        2.75382187      -1.11635896       0.15720551
N        0.73973695      -0.57136476       0.56486495
C       -0.12590782      -0.77909677       1.59235195
C        0.51769080      -1.52419592       2.56303897
C        1.83484858      -1.77255999       2.08807433
C        1.93156254      -1.16652230       0.84940901
H        0.49908329      -0.03024633      -0.30400884
C       -1.54866600       2.05400211      -2.83803472
C       -1.08431464       1.24308397      -1.60999857
O        0.11066920       0.82549299      -1.67078534
O       -1.89668210       1.06804261      -0.68441762
H       -1.46103658       1.43903629      -3.73544740
H       -0.89434228       2.91665966      -2.97501217
H       -2.57788924       2.38918160      -2.72339535
17
Properties=species:S:1:pos:R:3 charge=-1 charge_a=0 charge_b=-1 selection_a=1-10 selection_b=11-17 scaling=1.05 benchmark_Eint=-26.11 benchmark_unit=kcal/mol group=NH-Oa pbc="F F F"
H       -1.12079509      -0.37455034       1.53282858
H        0.09392149      -1.85014652       3.49851629
H        2.61393765      -2.32439552       2.58799364
H        2.75382187      -1.11635896       0.15720551
N        0.73973695      -0.57136476       0.56486495
C       -0.12590782      -0.77909677       1.59235195
C        0.51769080      -1.52419592       2.56303897
C        1.83484858      -1.77255999       2.08807433
C        1.93156254      -1.16652230       0.84940901
H        0.49908329      -0.03024633      -0.30400884
C       -1.56808670       2.09678907      -2.90637355
C       -1.10373534       1.28587094      -1.67833739
O        0.09124850       0.86827996      -1.73912416
O       -1.91610280       1.11082957      -0.75275645
H       -1.48045729       1.48182325      -3.80378622
H       -0.91376299       2.95944662      -3.04335099
H       -2.59730994       2.43196857      -2.79173417
17
Properties=species:S:1:pos:R:3 charge=-1 charge_a=0 charge_b=-1 selection_a=1-10 selection_b=11-17 scaling=1.1 benchmark_Eint=-25.509 benchmark_unit=kcal/mol group=NH-Oa pbc="F F F"
H       -1.12079509      -0.37455034       1.53282858
H        0.09392149      -1.85014652       3.49851629
H        2.61393765      -2.32439552       2.58799364
H        2.75382187      -1.11635896       0.15720551
N        0.73973695      -0.57136476       0.56486495
C       -0.12590782      -0.77909677       1.59235195
C        0.51769080      -1.52419592       2.56303897
C        1.83484858      -1.77255999       2.08807433
C        1.93156254      -1.16652230       0.84940901
H        0.49908329      -0.03024633      -0.30400884
C       -1.58750740       2.13957604      -2.97471237
C       -1.12315605       1.32865790      -1.74667621
O        0.07182779       0.91106692      -1.80746298
O       -1.93552351       1.15361654      -0.82109527
H       -1.49987799       1.52461022      -3.87212505
H       -0.93318369       3.00223359      -3.11168982
H       -2.61673065       2.47475553      -2.86007299
17
Properties=species:S:1:pos:R:3 charge=-1 charge_a=0 charge_b=-1 selection_a=1-10 selection_b=11-17 scaling=1.25 benchmark_Eint=-22.716 benchmark_unit=kcal/mol group=NH-Oa pbc="F F F"
H       -1.12079509      -0.37455034       1.53282858
H        0.09392149      -1.85014652       3.49851629
H        2.61393765      -2.32439552       2.58799364
H        2.75382187      -1.11635896       0.15720551
N        0.73973695      -0.57136476       0.56486495
C       -0.12590782      -0.77909677       1.59235195
C        0.51769080      -1.52419592       2.56303897
C        1.83484858      -1.77255999       2.08807433
C        1.93156254      -1.16652230       0.84940901
H        0.49908329      -0.03024633      -0.30400884
C       -1.64576952       2.26793694      -3.17972885
C       -1.18141816       1.45701880      -1.95169269
O        0.01356568       1.03942782      -2.01247946
O       -1.99378562       1.28197744      -1.02611174
H       -1.55814011       1.65297112      -4.07714152
H       -0.99144581       3.13059449      -3.31670629
H       -2.67499276       2.60311643      -3.06508947
17
Properties=species:S:1:pos:R:3 charge=-1 charge_a=0 charge_b=-1 selection_a=1-10 selection_b=11-17 scaling=1.5 benchmark_Eint=-17.635 benchmark_unit=kcal/mol group=NH-Oa pbc="F F F"
H       -1.12079509      -0.37455034       1.53282858
H        0.09392149      -1.85014652       3.49851629
H        2.61393765      -2.32439552       2.58799364
H        2.75382187      -1.11635896       0.15720551
N        0.73973695      -0.57136476       0.56486495
C       -0.12590782      -0.77909677       1.59235195
C        0.51769080      -1.52419592       2.56303897
C        1.83484858      -1.77255999       2.08807433
C        1.93156254      -1.16652230       0.84940901
H        0.49908329      -0.03024633      -0.30400884
C       -1.74287304       2.48187177      -3.52142297
C       -1.27852168       1.67095363      -2.29338681
O       -0.08353784       1.25336265      -2.35417358
O       -2.09088914       1.49591227      -1.36780587
H       -1.65524363       1.86690595      -4.41883564
H       -1.08854933       3.34452932      -3.65840042
H       -2.77209628       2.81705126      -3.40678359
17
Properties=species:S:1:pos:R:3 charge=-1 charge_a=0 charge_b=-1 selection_a=1-10 selection_b=11-17 scaling=2.0 benchmark_Eint=-10.665 benchmark_unit=kcal/mol group=NH-Oa pbc="F F F"
H       -1.12079509      -0.37455034       1.53282858
H        0.09392149      -1.85014652       3.49851629
H        2.61393765      -2.32439552       2.58799364
H        2.75382187      -1.11635896       0.15720551
N        0.73973695      -0.57136476       0.56486495
C       -0.12590782      -0.77909677       1.59235195
C        0.51769080      -1.52419592       2.56303897
C        1.83484858      -1.77255999       2.08807433
C        1.93156254      -1.16652230       0.84940901
H        0.49908329      -0.03024633      -0.30400884
C       -1.93708008       2.90974142      -4.20481122
C       -1.47272872       2.09882329      -2.97677506
O       -0.27774488       1.68123231      -3.03756183
O       -2.28509618       1.92378192      -2.05119411
H       -1.84945067       2.29477561      -5.10222389
H       -1.28275637       3.77239898      -4.34178866
H       -2.96630332       3.24492092      -4.09017184
24
Properties=species:S:1:pos:R:3 charge=-1 charge_a=0 charge_b=-1 selection_a=1-10 selection_b=11-24 scaling=0.8 benchmark_Eint=-17.461 benchmark_unit=kcal/mol group=NH-Oa pbc="F F F"
H       -0.37003508       1.07518118       3.03539076
H        0.50178652       0.82407448       5.62059783
H        2.43246505      -1.09110210       5.54738923
H        2.60016567      -1.86473599       2.94796813
N        1.06412402      -0.42293068       2.65779716
C        0.38209458       0.43595074       3.46224632
C        0.84580296       0.28296942       4.75494366
C        1.85522515      -0.71794819       4.71763630
C        1.96023468      -1.12924264       3.40284737
H        0.90569617      -0.50810852       1.62975927
O        0.68611862      -0.60530810       0.29462898
C       -0.21973373       0.20383901      -0.05318139
O       -0.85093948       0.99429603       0.67048012
C       -0.56996486       0.19798018      -1.54589096
C       -1.55501829       1.05063645      -2.03958688
C       -1.88059981       1.05381213      -3.39050249
C       -1.22134318       0.19951475      -4.26920377
C       -0.23624859      -0.65539545      -3.78498065
C        0.08509989      -0.65407415      -2.43257737
H       -2.05027652       1.70289932      -1.33482869
H       -2.64818093       1.72147162      -3.76133186
H       -1.47316455       0.20010967      -5.32198957
H        0.28028166      -1.32246028      -4.46372763
H        0.84575847      -1.30787981      -2.03165543
24
Properties=species:S:1:pos:R:3 charge=-1 charge_a=0 charge_b=-1 selection_a=1-10 selection_b=11-24 scaling=0.85 benchmark_Eint=-20.81 benchmark_unit=kcal/mol group=NH-Oa pbc="F F F"
H       -0.37003508       1.07518118       3.03539076
H        0.50178652       0.82407448       5.62059783
H        2.43246505      -1.09110210       5.54738923
H        2.60016567      -1.86473599       2.94796813
N        1.06412402      -0.42293068       2.65779716
C        0.38209458       0.43595074       3.46224632
C        0.84580296       0.28296942       4.75494366
C        1.85522515      -0.71794819       4.71763630
C        1.96023468      -1.12924264       3.40284737
H        0.90569617      -0.50810852       1.62975927
O        0.67239502      -0.61138308       0.21118334
C       -0.23345733       0.19776404      -0.13662704
O       -0.86466307       0.98822106       0.58703447
C       -0.58368846       0.19190520      -1.62933661
C       -1.56874188       1.04456147      -2.12303252
C       -1.89432341       1.04773715      -3.47394813
C       -1.23506677       0.19343978      -4.35264941
C       -0.24997219      -0.66147042      -3.86842630
C        0.07137629      -0.66014912      -2.51602301
H       -2.06400012       1.69682435      -1.41827433
H       -2.66190452       1.71539665      -3.84477751
H       -1.48688815       0.19403469      -5.40543521
H        0.26655806      -1.32853525      -4.54717328
H        0.83203487      -1.31395478      -2.11510108
24
Properties=species:S:1:pos:R:3 charge=-1 charge_a=0 charge_b=-1 selection_a=1-10 selection_b=11-24 scaling=0.9 benchmark_Eint=-22.734 benchmark_unit=kcal/mol group=NH-Oa pbc="F F F"
H       -0.37003508       1.07518118       3.03539076
H        0.50178652       0.82407448       5.62059783
H        2.43246505      -1.09110210       5.54738923
H        2.60016567      -1.86473599       2.94796813
N        1.06412402      -0.42293068       2.65779716
C        0.38209458       0.43595074       3.46224632
C        0.84580296       0.28296942       4.75494366
C        1.85522515      -0.71794819       4.71763630
C        1.96023468      -1.12924264       3.40284737
H        0.90569617      -0.50810852       1.62975927
O        0.65867142      -0.61745805       0.12773770
C       -0.24718093       0.19168906      -0.22007268
O       -0.87838667       0.98214608       0.50358883
C       -0.59741205       0.18583023      -1.71278225
C       -1.58246548       1.03848650      -2.20647816
C       -1.90804701       1.04166218      -3.55739377
C       -1.24879037       0.18736480      -4.43609505
C       -0.26369579      -0.66754540      -3.95187194
C        0.05765269      -0.66622409      -2.59946866
H       -2.07772372       1.69074938      -1.50171997
H       -2.67562812       1.70932168      -3.92822315
H       -1.50061175       0.18795972      -5.48888085
H        0.25283446      -1.33461023      -4.63061892
H        0.81831128      -1.32002975      -2.19854672
24
Properties=species:S:1:pos:R:3 charge=-1 charge_a=0 charge_b=-1 selection_a=1-10 selection_b=11-24 scaling=0.95 benchmark_Eint=-23.658 benchmark_unit=kcal/mol group=NH-Oa pbc="F F F"
H       -0.37003508       1.07518118       3.03539076
H        0.50178652       0.82407448       5.62059783
H        2.43246505      -1.09110210       5.54738923
H        2.60016567      -1.86473599       2.94796813
N        1.06412402      -0.42293068       2.65779716
C        0.38209458       0.43595074       3.46224632
C        0.84580296       0.28296942       4.75494366
C        1.85522515      -0.71794819       4.71763630
C        1.96023468      -1.12924264       3.40284737
H        0.90569617      -0.50810852       1.62975927
O        0.64494782      -0.62353303       0.04429206
C       -0.26090453       0.18561409      -0.30351832
O       -0.89211027       0.97607111       0.42014319
C       -0.61113565       0.17975525      -1.79622789
C       -1.59618908       1.03241152      -2.28992381
C       -1.92177060       1.03558720      -3.64083941
C       -1.26251397       0.18128983      -4.51954069
C       -0.27741939      -0.67362037      -4.03531758
C        0.04392910      -0.67229907      -2.68291430
H       -2.09144731       1.68467440      -1.58516561
H       -2.68935172       1.70324670      -4.01166879
H       -1.51433534       0.18188474      -5.57232650
H        0.23911087      -1.34068520      -4.71406456
H        0.80458768      -1.32610473      -2.28199236
24
Properties=species:S:1:pos:R:3 charge=-1 charge_a=0 charge_b=-1 selection_a=1-10 selection_b=11-24 scaling=1.0 benchmark_Eint=-23.888 benchmark_unit=kcal/mol group=NH-Oa pbc="F F F"
H       -0.37003508       1.07518118       3.03539076
H        0.50178652       0.82407448       5.62059783
H        2.43246505      -1.09110210       5.54738923
H        2.60016567      -1.86473599       2.94796813
N        1.06412402      -0.42293068       2.65779716
C        0.38209458       0.43595074       3.46224632
C        0.84580296       0.28296942       4.75494366
C        1.85522515      -0.71794819       4.71763630
C        1.96023468      -1.12924264       3.40284737
H        0.90569617      -0.50810852       1.62975927
O        0.63122422      -0.62960800      -0.03915359
C       -0.27462812       0.17953912      -0.38696397
O       -0.90583386       0.96999613       0.33669755
C       -0.62485925       0.17368028      -1.87967354
C       -1.60991268       1.02633655      -2.37336945
C       -1.93549420       1.02951223      -3.72428506
C       -1.27623757       0.17521486      -4.60298634
C       -0.29114298      -0.67969534      -4.11876323
C        0.03020550      -0.67837404      -2.76635994
H       -2.10517091       1.67859943      -1.66861126
H       -2.70307532       1.69717173      -4.09511443
H       -1.52805894       0.17580977      -5.65577214
H        0.22538727      -1.34676018      -4.79751021
H        0.79086408      -1.33217970      -2.36543800
24
Properties=species:S:1:pos:R:3 charge=-1 charge_a=0 charge_b=-1 selection_a=1-10 selection_b=11-24 scaling=1.05 benchmark_Eint=-23.642 benchmark_unit=kcal/mol group=NH-Oa pbc="F F F"
H       -0.37003508       1.07518118       3.03539076
H        0.50178652       0.82407448       5.62059783
H        2.43246505      -1.09110210       5.54738923
H        2.60016567      -1.86473599       2.94796813
N        1.06412402      -0.42293068       2.65779716
C        0.38209458       0.43595074       3.46224632
C        0.84580296       0.28296942       4.75494366
C        1.85522515      -0.71794819       4.71763630
C        1.96023468      -1.12924264       3.40284737
H        0.90569617      -0.50810852       1.62975927
O        0.61750063      -0.63568298      -0.12259923
C       -0.28835172       0.17346414      -0.47040961
O       -0.91955746       0.96392116       0.25325190
C       -0.63858284       0.16760531      -1.96311918
C       -1.62363627       1.02026157      -2.45681509
C       -1.94921780       1.02343726      -3.80773070
C       -1.28996116       0.16913988      -4.68643198
C       -0.30486658      -0.68577032      -4.20220887
C        0.01648190      -0.68444902      -2.84980558
H       -2.11889451       1.67252445      -1.75205690
H       -2.71679891       1.69109675      -4.17856008
H       -1.54178254       0.16973480      -5.73921778
H        0.21166367      -1.35283515      -4.88095585
H        0.77714049      -1.33825468      -2.44888365
24
Properties=species:S:1:pos:R:3 charge=-1 charge_a=0 charge_b=-1 selection_a=1-10 selection_b=11-24 scaling=1.1 benchmark_Eint=-23.081 benchmark_unit=kcal/mol group=NH-Oa pbc="F F F"
H       -0.37003508       1.07518118       3.03539076
H        0.50178652       0.82407448       5.62059783
H        2.43246505      -1.09110210       5.54738923
H        2.60016567      -1.86473599       2.94796813
N        1.06412402      -0.42293068       2.65779716
C        0.38209458       0.43595074       3.46224632
C        0.84580296       0.28296942       4.75494366
C        1.85522515      -0.71794819       4.71763630
C        1.96023468      -1.12924264       3.40284737
H        0.90569617      -0.50810852       1.62975927
O        0.60377703      -0.64175795      -0.20604487
C       -0.30207532       0.16738917      -0.55385525
O       -0.93328106       0.95784619       0.16980626
C       -0.65230644       0.16153033      -2.04656482
C       -1.63735987       1.01418660      -2.54026074
C       -1.96294140       1.01736228      -3.89117634
C       -1.30368476       0.16306491      -4.76987762
C       -0.31859018      -0.69184529      -4.28565451
C        0.00275830      -0.69052399      -2.93325123
H       -2.13261811       1.66644948      -1.83550254
H       -2.73052251       1.68502178      -4.26200572
H       -1.55550613       0.16365982      -5.82266343
H        0.19794007      -1.35891012      -4.96440149
H        0.76341689      -1.34432965      -2.53232929
24
Properties=species:S:1:pos:R:3 charge=-1 charge_a=0 charge_b=-1 selection_a=1-10 selection_b=11-24 scaling=1.25 benchmark_Eint=-20.478 benchmark_unit=kcal/mol group=NH-Oa pbc="F F F"
H       -0.37003508       1.07518118       3.03539076
H        0.50178652       0.82407448       5.62059783
H        2.43246505      -1.09110210       5.54738923
H        2.60016567      -1.86473599       2.94796813
N        1.06412402      -0.42293068       2.65779716
C        0.38209458       0.43595074       3.46224632
C        0.84580296       0.28296942       4.75494366
C        1.85522515      -0.71794819       4.71763630
C        1.96023468      -1.12924264       3.40284737
H        0.90569617      -0.50810852       1.62975927
O        0.56260624      -0.65998287      -0.45638180
C       -0.34324611       0.14916425      -0.80419218
O       -0.97445185       0.93962126      -0.08053067
C       -0.69347724       0.14330541      -2.29690175
C       -1.67853066       0.99596168      -2.79059766
C       -2.00411219       0.99913736      -4.14151327
C       -1.34485555       0.14483999      -5.02021455
C       -0.35976097      -0.71007022      -4.53599144
C       -0.03841249      -0.70874891      -3.18358816
H       -2.17378890       1.64822456      -2.08583947
H       -2.77169330       1.66679686      -4.51234265
H       -1.59667693       0.14543490      -6.07300035
H        0.15676928      -1.37713505      -5.21473842
H        0.72224610      -1.36255457      -2.78266622
24
Properties=species:S:1:pos:R:3 charge=-1 charge_a=0 charge_b=-1 selection_a=1-10 selection_b=11-24 scaling=1.5 benchmark_Eint=-15.797 benchmark_unit=kcal/mol group=NH-Oa pbc="F F F"
H       -0.37003508       1.07518118       3.03539076
H        0.50178652       0.82407448       5.62059783
H        2.43246505      -1.09110210       5.54738923
H        2.60016567      -1.86473599       2.94796813
N        1.06412402      -0.42293068       2.65779716
C        0.38209458       0.43595074       3.46224632
C        0.84580296       0.28296942       4.75494366
C        1.85522515      -0.71794819       4.71763630
C        1.96023468      -1.12924264       3.40284737
H        0.90569617      -0.50810852       1.62975927
O        0.49398825      -0.69035774      -0.87361001
C       -0.41186410       0.11878937      -1.22142039
O       -1.04306984       0.90924639      -0.49775888
C       -0.76209522       0.11293054      -2.71412996
C       -1.74714865       0.96558681      -3.20782588
C       -2.07273017       0.96876249      -4.55874148
C       -1.41347354       0.11446511      -5.43744276
C       -0.42837896      -0.74044509      -4.95321965
C       -0.10703047      -0.73912378      -3.60081637
H       -2.24240689       1.61784969      -2.50306769
H       -2.84031129       1.63642198      -4.92957086
H       -1.66529491       0.11506003      -6.49022857
H        0.08815129      -1.40750992      -5.63196663
H        0.65362811      -1.39292944      -3.19989443
24
Properties=species:S:1:pos:R:3 charge=-1 charge_a=0 charge_b=-1 selection_a=1-10 selection_b=11-24 scaling=2.0 benchmark_Eint=-9.495 benchmark_unit=kcal/mol group=NH-Oa pbc="F F F"
H       -0.37003508       1.07518118       3.03539076
H        0.50178652       0.82407448       5.62059783
H        2.43246505      -1.09110210       5.54738923
H        2.60016567      -1.86473599       2.94796813
N        1.06412402      -0.42293068       2.65779716
C        0.38209458       0.43595074       3.46224632
C        0.84580296       0.28296942       4.75494366
C        1.85522515      -0.71794819       4.71763630
C        1.96023468      -1.12924264       3.40284737
H        0.90569617      -0.50810852       1.62975927
O        0.35675228      -0.75110749      -1.70806644
C       -0.54910007       0.05803963      -2.05587682
O       -1.18030581       0.84849665      -1.33221531
C       -0.89933120       0.05218079      -3.54858639
C       -1.88438463       0.90483706      -4.04228230
C       -2.20996615       0.90801275      -5.39319791
C       -1.55070952       0.05371537      -6.27189919
C       -0.56561493      -0.80119483      -5.78767608
C       -0.24426645      -0.79987353      -4.43527280
H       -2.37964286       1.55709994      -3.33752411
H       -2.97754727       1.57567224      -5.76402729
H       -1.80253089       0.05431028      -7.32468500
H       -0.04908468      -1.46825966      -6.46642306
H        0.51639213      -1.45367919      -4.03435086
13
Properties=species:S:1:pos:R:3 charge=-1 charge_a=0 charge_b=-1 selection_a=1-10 selection_b=11-13 scaling=0.8 benchmark_Eint=-17.836 benchmark_unit=kcal/mol group=NH-Oa pbc="F F F"
H       -1.68398706      -0.70126623       1.91221231
H        0.24724221      -1.95639411       3.35566875
H        2.54097224      -1.66411073       1.92194279
H        1.82929541      -0.24161158      -0.30475719
N       -0.09259739      -0.29739014       0.56245190
C       -0.63616198      -0.81743821       1.69803443
C        0.36409228      -1.44867933       2.41242904
C        1.56244774      -1.29544162       1.66256175
C        1.23684610      -0.57842602       0.52687768
H       -0.60006640       0.23712299      -0.17824439
N       -0.66939003       1.33176259      -2.08440839
O       -1.36495996       0.93359068      -1.10181940
O        0.53886487       1.03874859      -2.05084481
13
Properties=species:S:1:pos:R:3 charge=-1 charge_a=0 charge_b=-1 selection_a=1-10 selection_b=11-13 scaling=0.85 benchmark_Eint=-20.895 benchmark_unit=kcal/mol group=NH-Oa pbc="F F F"
H       -1.68398706      -0.70126623       1.91221231
H        0.24724221      -1.95639411       3.35566875
H        2.54097224      -1.66411073       1.92194279
H        1.82929541      -0.24161158      -0.30475719
N       -0.09259739      -0.29739014       0.56245190
C       -0.63616198      -0.81743821       1.69803443
C        0.36409228      -1.44867933       2.41242904
C        1.56244774      -1.29544162       1.66256175
C        1.23684610      -0.57842602       0.52687768
H       -0.60006640       0.23712299      -0.17824439
N       -0.71719588       1.37529182      -2.14213182
O       -1.41276581       0.97711991      -1.15954284
O        0.49105902       1.08227782      -2.10856825
13
Properties=species:S:1:pos:R:3 charge=-1 charge_a=0 charge_b=-1 selection_a=1-10 selection_b=11-13 scaling=0.9 benchmark_Eint=-22.65 benchmark_unit=kcal/mol group=NH-Oa pbc="F F F"
H       -1.68398706      -0.70126623       1.91221231
H        0.24724221      -1.95639411       3.35566875
H        2.54097224      -1.66411073       1.92194279
H        1.82929541      -0.24161158      -0.30475719
N       -0.09259739      -0.29739014       0.56245190
C       -0.63616198      -0.81743821       1.69803443
C        0.36409228      -1.44867933       2.41242904
C        1.56244774      -1.29544162       1.66256175
C        1.23684610      -0.57842602       0.52687768
H       -0.60006640       0.23712299      -0.17824439
N       -0.76500173       1.41882105      -2.19985526
O       -1.46057165       1.02064914      -1.21726628
O        0.44325317       1.12580705      -2.16629169
13
Properties=species:S:1:pos:R:3 charge=-1 charge_a=0 charge_b=-1 selection_a=1-10 selection_b=11-13 scaling=0.95 benchmark_Eint=-23.494 benchmark_unit=kcal/mol group=NH-Oa pbc="F F F"
H       -1.68398706      -0.70126623       1.91221231
H        0.24724221      -1.95639411       3.35566875
H        2.54097224      -1.66411073       1.92194279
H        1.82929541      -0.24161158      -0.30475719
N       -0.09259739      -0.29739014       0.56245190
C       -0.63616198      -0.81743821       1.69803443
C        0.36409228      -1.44867933       2.41242904
C        1.56244774      -1.29544162       1.66256175
C        1.23684610      -0.57842602       0.52687768
H       -0.60006640       0.23712299      -0.17824439
N       -0.81280758       1.46235028      -2.25757870
O       -1.50837750       1.06417837      -1.27498972
O        0.39544733       1.16933628      -2.22401512
13
Properties=species:S:1:pos:R:3 charge=-1 charge_a=0 charge_b=-1 selection_a=1-10 selection_b=11-13 scaling=1.0 benchmark_Eint=-23.705 benchmark_unit=kcal/mol group=NH-Oa pbc="F F F"
H       -1.68398706      -0.70126623       1.91221231
H        0.24724221      -1.95639411       3.35566875
H        2.54097224      -1.66411073       1.92194279
H        1.82929541      -0.24161158      -0.30475719
N       -0.09259739      -0.29739014       0.56245190
C       -0.63616198      -0.81743821       1.69803443
C        0.36409228      -1.44867933       2.41242904
C        1.56244774      -1.29544162       1.66256175
C        1.23684610      -0.57842602       0.52687768
H       -0.60006640       0.23712299      -0.17824439
N       -0.86061342       1.50587951      -2.31530214
O       -1.55618335       1.10770760      -1.33271315
O        0.34764148       1.21286551      -2.28173856
13
Properties=species:S:1:pos:R:3 charge=-1 charge_a=0 charge_b=-1 selection_a=1-10 selection_b=11-13 scaling=1.05 benchmark_Eint=-23.481 benchmark_unit=kcal/mol group=NH-Oa pbc="F F F"
H       -1.68398706      -0.70126623       1.91221231
H        0.24724221      -1.95639411       3.35566875
H        2.54097224      -1.66411073       1.92194279
H        1.82929541      -0.24161158      -0.30475719
N       -0.09259739      -0.29739014       0.56245190
C       -0.63616198      -0.81743821       1.69803443
C        0.36409228      -1.44867933       2.41242904
C        1.56244774      -1.29544162       1.66256175
C        1.23684610      -0.57842602       0.52687768
H       -0.60006640       0.23712299      -0.17824439
N       -0.90841927       1.54940874      -2.37302558
O       -1.60398920       1.15123683      -1.39043659
O        0.29983563       1.25639474      -2.33946200
13
Properties=species:S:1:pos:R:3 charge=-1 charge_a=0 charge_b=-1 selection_a=1-10 selection_b=11-13 scaling=1.1 benchmark_Eint=-22.968 benchmark_unit=kcal/mol group=NH-Oa pbc="F F F"
H       -1.68398706      -0.70126623       1.91221231
H        0.24724221      -1.95639411       3.35566875
H        2.54097224      -1.66411073       1.92194279
H        1.82929541      -0.24161158      -0.30475719
N       -0.09259739      -0.29739014       0.56245190
C       -0.63616198      -0.81743821       1.69803443
C        0.36409228      -1.44867933       2.41242904
C        1.56244774      -1.29544162       1.66256175
C        1.23684610      -0.57842602       0.52687768
H       -0.60006640       0.23712299      -0.17824439
N       -0.95622512       1.59293797      -2.43074901
O       -1.65179505       1.19476606      -1.44816003
O        0.25202978       1.29992397      -2.39718544
13
Properties=species:S:1:pos:R:3 charge=-1 charge_a=0 charge_b=-1 selection_a=1-10 selection_b=11-13 scaling=1.25 benchmark_Eint=-20.567 benchmark_unit=kcal/mol group=NH-Oa pbc="F F F"
H       -1.68398706      -0.70126623       1.91221231
H        0.24724221      -1.95639411       3.35566875
H        2.54097224      -1.66411073       1.92194279
H        1.82929541      -0.24161158      -0.30475719
N       -0.09259739      -0.29739014       0.56245190
C       -0.63616198      -0.81743821       1.69803443
C        0.36409228      -1.44867933       2.41242904
C        1.56244774      -1.29544162       1.66256175
C        1.23684610      -0.57842602       0.52687768
H       -0.60006640       0.23712299      -0.17824439
N       -1.09964266       1.72352566      -2.60391933
O       -1.79521259       1.32535375      -1.62133034
O        0.10861224       1.43051166      -2.57035575
13
Properties=species:S:1:pos:R:3 charge=-1 charge_a=0 charge_b=-1 selection_a=1-10 selection_b=11-13 scaling=1.5 benchmark_Eint=-16.139 benchmark_unit=kcal/mol group=NH-Oa pbc="F F F"
H       -1.68398706      -0.70126623       1.91221231
H        0.24724221      -1.95639411       3.35566875
H        2.54097224      -1.66411073       1.92194279
H        1.82929541      -0.24161158      -0.30475719
N       -0.09259739      -0.29739014       0.56245190
C       -0.63616198      -0.81743821       1.69803443
C        0.36409228      -1.44867933       2.41242904
C        1.56244774      -1.29544162       1.66256175
C        1.23684610      -0.57842602       0.52687768
H       -0.60006640       0.23712299      -0.17824439
N       -1.33867190       1.94117182      -2.89253652
O       -2.03424183       1.54299990      -1.90994753
O       -0.13041700       1.64815781      -2.85897294
13
Properties=species:S:1:pos:R:3 charge=-1 charge_a=0 charge_b=-1 selection_a=1-10 selection_b=11-13 scaling=2.0 benchmark_Eint=-9.868 benchmark_unit=kcal/mol group=NH-Oa pbc="F F F"
H       -1.68398706      -0.70126623       1.91221231
H        0.24724221      -1.95639411       3.35566875
H        2.54097224      -1.66411073       1.92194279
H        1.82929541      -0.24161158      -0.30475719
N       -0.09259739      -0.29739014       0.56245190
C       -0.63616198      -0.81743821       1.69803443
C        0.36409228      -1.44867933       2.41242904
C        1.56244774      -1.29544162       1.66256175
C        1.23684610      -0.57842602       0.52687768
H       -0.60006640       0.23712299      -0.17824439
N       -1.81673038       2.37646412      -3.46977090
O       -2.51230031       1.97829221      -2.48718191
O       -0.60847548       2.08345011      -3.43620732
11
Properties=species:S:1:pos:R:3 charge=-1 charge_a=0 charge_b=-1 selection_a=1-4 selection_b=5-11 scaling=0.8 benchmark_Eint=-5.331 benchmark_unit=kcal/mol group=NH-Oa pbc="F F F"
N       -1.61693769       2.08406271      -1.21222773
H       -0.95178943       1.61702876      -0.57306138
H       -2.50142757       2.10603320      -0.71674828
H       -1.75159142       1.43856699      -1.98249332
C        0.04016216      -0.89200073      -1.22832637
C        0.28224683      -0.35255004       0.21003193
O       -0.09616980       0.83307408       0.40601371
O        0.81442342      -1.13532384       1.02104047
H        0.48829885      -0.21599826      -1.95936387
H       -1.03340934      -0.91824640      -1.42953312
H        0.45291777      -1.89236783      -1.35187324
11
Properties=species:S:1:pos:R:3 charge=-1 charge_a=0 charge_b=-1 selection_a=1-4 selection_b=5-11 scaling=0.85 benchmark_Eint=-7.634 benchmark_unit=kcal/mol group=NH-Oa pbc="F F F"
N       -1.61693769       2.08406271      -1.21222773
H       -0.95178943       1.61702876      -0.57306138
H       -2.50142757       2.10603320      -0.71674828
H       -1.75159142       1.43856699      -1.98249332
C        0.09363839      -0.94099790      -1.16713418
C        0.33572306      -0.40154720       0.27122412
O       -0.04269358       0.78407692       0.46720590
O        0.86789964      -1.18432101       1.08223266
H        0.54177507      -0.26499543      -1.89817168
H       -0.97993311      -0.96724357      -1.36834092
H        0.50639400      -1.94136500      -1.29068104
11
Properties=species:S:1:pos:R:3 charge=-1 charge_a=0 charge_b=-1 selection_a=1-4 selection_b=5-11 scaling=0.9 benchmark_Eint=-8.957 benchmark_unit=kcal/mol group=NH-Oa pbc="F F F"
N       -1.61693769       2.08406271      -1.21222773
H       -0.95178943       1.61702876      -0.57306138
H       -2.50142757       2.10603320      -0.71674828
H       -1.75159142       1.43856699      -1.98249332
C        0.14711462      -0.98999507      -1.10594198
C        0.38919928      -0.45054437       0.33241631
O        0.01078265       0.73507975       0.52839809
O        0.92137587      -1.23331817       1.14342486
H        0.59525130      -0.31399260      -1.83697949
H       -0.92645688      -1.01624074      -1.30714873
H        0.55987023      -1.99036217      -1.22948885
11
Properties=species:S:1:pos:R:3 charge=-1 charge_a=0 charge_b=-1 selection_a=1-4 selection_b=5-11 scaling=0.95 benchmark_Eint=-9.607 benchmark_unit=kcal/mol group=NH-Oa pbc="F F F"
N       -1.61693769       2.08406271      -1.21222773
H       -0.95178943       1.61702876      -0.57306138
H       -2.50142757       2.10603320      -0.71674828
H       -1.75159142       1.43856699      -1.98249332
C        0.20059084      -1.03899224      -1.04474979
C        0.44267551      -0.49954154       0.39360851
O        0.06425888       0.68608258       0.58959028
O        0.97485210      -1.28231534       1.20461705
H        0.64872753      -0.36298977      -1.77578730
H       -0.87298066      -1.06523791      -1.24595654
H        0.61334645      -2.03935934      -1.16829666
11
Properties=species:S:1:pos:R:3 charge=-1 charge_a=0 charge_b=-1 selection_a=1-4 selection_b=5-11 scaling=1.0 benchmark_Eint=-9.801 benchmark_unit=kcal/mol group=NH-Oa pbc="F F F"
N       -1.61693769       2.08406271      -1.21222773
H       -0.95178943       1.61702876      -0.57306138
H       -2.50142757       2.10603320      -0.71674828
H       -1.75159142       1.43856699      -1.98249332
C        0.25406707      -1.08798940      -0.98355760
C        0.49615174      -0.54853871       0.45480070
O        0.11773510       0.63708541       0.65078248
O        1.02832832      -1.33131251       1.26580924
H        0.70220375      -0.41198693      -1.71459510
H       -0.81950443      -1.11423507      -1.18476435
H        0.66682268      -2.08835650      -1.10710447
11
Properties=species:S:1:pos:R:3 charge=-1 charge_a=0 charge_b=-1 selection_a=1-4 selection_b=5-11 scaling=1.05 benchmark_Eint=-9.696 benchmark_unit=kcal/mol group=NH-Oa pbc="F F F"
N       -1.61693769       2.08406271      -1.21222773
H       -0.95178943       1.61702876      -0.57306138
H       -2.50142757       2.10603320      -0.71674828
H       -1.75159142       1.43856699      -1.98249332
C        0.30754330      -1.13698657      -0.92236540
C        0.54962796      -0.59753587       0.51599289
O        0.17121133       0.58808825       0.71197467
O        1.08180455      -1.38030968       1.32700143
H        0.75567998      -0.46098410      -1.65340291
H       -0.76602820      -1.16323224      -1.12357215
H        0.72029891      -2.13735367      -1.04591227
11
Properties=species:S:1:pos:R:3 charge=-1 charge_a=0 charge_b=-1 selection_a=1-4 selection_b=5-11 scaling=1.1 benchmark_Eint=-9.4 benchmark_unit=kcal/mol group=NH-Oa pbc="F F F"
N       -1.61693769       2.08406271      -1.21222773
H       -0.95178943       1.61702876      -0.57306138
H       -2.50142757       2.10603320      -0.71674828
H       -1.75159142       1.43856699      -1.98249332
C        0.36101953      -1.18598374      -0.86117321
C        0.60310419      -0.64653304       0.57718509
O        0.22468756       0.53909108       0.77316686
O        1.13528078      -1.42930684       1.38819363
H        0.80915621      -0.50998127      -1.59221072
H       -0.71255198      -1.21222941      -1.06237996
H        0.77377513      -2.18635084      -0.98472008
11
Properties=species:S:1:pos:R:3 charge=-1 charge_a=0 charge_b=-1 selection_a=1-4 selection_b=5-11 scaling=1.25 benchmark_Eint=-8.016 benchmark_unit=kcal/mol group=NH-Oa pbc="F F F"
N       -1.61693769       2.08406271      -1.21222773
H       -0.95178943       1.61702876      -0.57306138
H       -2.50142757       2.10603320      -0.71674828
H       -1.75159142       1.43856699      -1.98249332
C        0.52144821      -1.33297524      -0.67759663
C        0.76353287      -0.79352454       0.76076166
O        0.38511624       0.39209958       0.95674344
O        1.29570946      -1.57629835       1.57177021
H        0.96958489      -0.65697277      -1.40863414
H       -0.55212330      -1.35922091      -0.87880338
H        0.93420382      -2.33334234      -0.80114350
11
Properties=species:S:1:pos:R:3 charge=-1 charge_a=0 charge_b=-1 selection_a=1-4 selection_b=5-11 scaling=1.5 benchmark_Eint=-5.698 benchmark_unit=kcal/mol group=NH-Oa pbc="F F F"
N       -1.61693769       2.08406271      -1.21222773
H       -0.95178943       1.61702876      -0.57306138
H       -2.50142757       2.10603320      -0.71674828
H       -1.75159142       1.43856699      -1.98249332
C        0.78882934      -1.57796108      -0.37163567
C        1.03091401      -1.03851038       1.06672263
O        0.65249737       0.14711374       1.26270441
O        1.56309059      -1.82128418       1.87773117
H        1.23696602      -0.90195861      -1.10267318
H       -0.28474216      -1.60420674      -0.57284242
H        1.20158495      -2.57832818      -0.49518254
11
Properties=species:S:1:pos:R:3 charge=-1 charge_a=0 charge_b=-1 selection_a=1-4 selection_b=5-11 scaling=2.0 benchmark_Eint=-3.017 benchmark_unit=kcal/mol group=NH-Oa pbc="F F F"
N       -1.61693769       2.08406271      -1.21222773
H       -0.95178943       1.61702876      -0.57306138
H       -2.50142757       2.10603320      -0.71674828
H       -1.75159142       1.43856699      -1.98249332
C        1.32359161      -2.06793275       0.24028626
C        1.56567627      -1.52848205       1.67864456
O        1.18725964      -0.34285793       1.87462633
O        2.09785286      -2.31125586       2.48965310
H        1.77172829      -1.39193028      -0.49075125
H        0.25002011      -2.09417842       0.03907951
H        1.73634722      -3.06829985       0.11673939
18
Properties=species:S:1:pos:R:3 charge=-1 charge_a=0 charge_b=-1 selection_a=1-4 selection_b=5-18 scaling=0.8 benchmark_Eint=-6.128 benchmark_unit=kcal/mol group=NH-Oa pbc="F F F"
N       -1.56883222       4.28646734       0.38736676
H       -1.19349208       3.56927305      -0.24134393
H       -1.37892302       3.86701918       1.29338730
H       -2.57678304       4.24200074       0.27781910
O       -0.59486814       2.10987378      -0.72385604
C       -0.39527343       1.44117098       0.31901016
O       -0.48824713       1.80557485       1.51047202
C        0.01859961      -0.02741085       0.09502684
C        0.26604132      -0.86814157       1.17838336
C        0.63876145      -2.19303691       0.98267023
C        0.77005348      -2.69815511      -0.30755458
C        0.52549268      -1.86634512      -1.39619219
C        0.15304604      -0.54239792      -1.19281499
H        0.15661474      -0.44860281       2.16828579
H        0.82792681      -2.83483265       1.83453194
H        1.06033453      -3.72958508      -0.46304652
H        0.62617975      -2.25284416      -2.40307772
H       -0.04268339       0.12591293      -2.01910028
18
Properties=species:S:1:pos:R:3 charge=-1 charge_a=0 charge_b=-1 selection_a=1-4 selection_b=5-18 scaling=0.85 benchmark_Eint=-8.311 benchmark_unit=kcal/mol group=NH-Oa pbc="F F F"
N       -1.56883222       4.28646734       0.38736676
H       -1.19349208       3.56927305      -0.24134393
H       -1.37892302       3.86701918       1.29338730
H       -2.57678304       4.24200074       0.27781910
O       -0.55745414       2.01866133      -0.75401304
C       -0.35785944       1.34995852       0.28885315
O       -0.45083313       1.71436240       1.48031502
C        0.05601361      -0.11862330       0.06486984
C        0.30345532      -0.95935403       1.14822636
C        0.67617545      -2.28424937       0.95251322
C        0.80746748      -2.78936756      -0.33771158
C        0.56290668      -1.95755758      -1.42634920
C        0.19046004      -0.63361037      -1.22297199
H        0.19402874      -0.53981527       2.13812879
H        0.86534080      -2.92604510       1.80437494
H        1.09774853      -3.82079754      -0.49320353
H        0.66359375      -2.34405661      -2.43323473
H       -0.00526940       0.03470048      -2.04925728
18
Properties=species:S:1:pos:R:3 charge=-1 charge_a=0 charge_b=-1 selection_a=1-4 selection_b=5-18 scaling=0.9 benchmark_Eint=-9.531 benchmark_unit=kcal/mol group=NH-Oa pbc="F F F"
N       -1.56883222       4.28646734       0.38736676
H       -1.19349208       3.56927305      -0.24134393
H       -1.37892302       3.86701918       1.29338730
H       -2.57678304       4.24200074       0.27781910
O       -0.52004015       1.92744888      -0.78417005
C       -0.32044544       1.25874607       0.25869615
O       -0.41341914       1.62314994       1.45015801
C        0.09342760      -0.20983576       0.03471283
C        0.34086932      -1.05056648       1.11806935
C        0.71358944      -2.37546182       0.92235621
C        0.84488147      -2.88058002      -0.36786859
C        0.60032067      -2.04877003      -1.45650620
C        0.22787403      -0.72482283      -1.25312900
H        0.23144274      -0.63102772       2.10797178
H        0.90275480      -3.01725755       1.77421793
H        1.13516252      -3.91200999      -0.52336054
H        0.70100774      -2.43526907      -2.46339173
H        0.03214460      -0.05651198      -2.07941429
18
Properties=species:S:1:pos:R:3 charge=-1 charge_a=0 charge_b=-1 selection_a=1-4 selection_b=5-18 scaling=0.95 benchmark_Eint=-10.1 benchmark_unit=kcal/mol group=NH-Oa pbc="F F F"
N       -1.56883222       4.28646734       0.38736676
H       -1.19349208       3.56927305      -0.24134393
H       -1.37892302       3.86701918       1.29338730
H       -2.57678304       4.24200074       0.27781910
O       -0.48262615       1.83623642      -0.81432706
C       -0.28303144       1.16753362       0.22853914
O       -0.37600514       1.53193749       1.42000100
C        0.13084160      -0.30104821       0.00455582
C        0.37828331      -1.14177893       1.08791234
C        0.75100344      -2.46667428       0.89219921
C        0.88229547      -2.97179247      -0.39802560
C        0.63773467      -2.13998248      -1.48666321
C        0.26528803      -0.81603528      -1.28328601
H        0.26885673      -0.72224018       2.07781477
H        0.94016879      -3.10847001       1.74406092
H        1.17257652      -4.00322244      -0.55351755
H        0.73842174      -2.52648152      -2.49354874
H        0.06955860      -0.14772443      -2.10957130
18
Properties=species:S:1:pos:R:3 charge=-1 charge_a=0 charge_b=-1 selection_a=1-4 selection_b=5-18 scaling=1.0 benchmark_Eint=-10.237 benchmark_unit=kcal/mol group=NH-Oa pbc="F F F"
N       -1.56883222       4.28646734       0.38736676
H       -1.19349208       3.56927305      -0.24134393
H       -1.37892302       3.86701918       1.29338730
H       -2.57678304       4.24200074       0.27781910
O       -0.44521215       1.74502397      -0.84448406
C       -0.24561745       1.07632116       0.19838213
O       -0.33859114       1.44072504       1.38984400
C        0.16825560      -0.39226067      -0.02560118
C        0.41569731      -1.23299139       1.05775534
C        0.78841744      -2.55788673       0.86204220
C        0.91970947      -3.06300493      -0.42818260
C        0.67514866      -2.23119494      -1.51682022
C        0.30270202      -0.90724773      -1.31344302
H        0.30627073      -0.81345263       2.04765776
H        0.97758279      -3.19968246       1.71390392
H        1.20999051      -4.09443490      -0.58367455
H        0.77583574      -2.61769397      -2.52370575
H        0.10697259      -0.23893688      -2.13972830
18
Properties=species:S:1:pos:R:3 charge=-1 charge_a=0 charge_b=-1 selection_a=1-4 selection_b=5-18 scaling=1.05 benchmark_Eint=-10.096 benchmark_unit=kcal/mol group=NH-Oa pbc="F F F"
N       -1.56883222       4.28646734       0.38736676
H       -1.19349208       3.56927305      -0.24134393
H       -1.37892302       3.86701918       1.29338730
H       -2.57678304       4.24200074       0.27781910
O       -0.40779816       1.65381151      -0.87464107
C       -0.20820345       0.98510871       0.16822513
O       -0.30117715       1.34951258       1.35968699
C        0.20566959      -0.48347312      -0.05575819
C        0.45311131      -1.32420384       1.02759833
C        0.82583143      -2.64909918       0.83188519
C        0.95712346      -3.15421738      -0.45833961
C        0.71256266      -2.32240739      -1.54697723
C        0.34011602      -0.99846019      -1.34360002
H        0.34368473      -0.90466508       2.01750076
H        1.01499679      -3.29089492       1.68374691
H        1.24740451      -4.18564735      -0.61383156
H        0.81324973      -2.70890643      -2.55386275
H        0.14438659      -0.33014934      -2.16988531
18
Properties=species:S:1:pos:R:3 charge=-1 charge_a=0 charge_b=-1 selection_a=1-4 selection_b=5-18 scaling=1.1 benchmark_Eint=-9.782 benchmark_unit=kcal/mol group=NH-Oa pbc="F F F"
N       -1.56883222       4.28646734       0.38736676
H       -1.19349208       3.56927305      -0.24134393
H       -1.37892302       3.86701918       1.29338730
H       -2.57678304       4.24200074       0.27781910
O       -0.37038416       1.56259906      -0.90479808
C       -0.17078946       0.89389625       0.13806812
O       -0.26376315       1.25830013       1.32952998
C        0.24308359      -0.57468557      -0.08591520
C        0.49052530      -1.41541630       0.99744132
C        0.86324543      -2.74031164       0.80172819
C        0.99453746      -3.24542983      -0.48849662
C        0.74997665      -2.41361984      -1.57713423
C        0.37753002      -1.08967264      -1.37375703
H        0.38109872      -0.99587754       1.98734375
H        1.05241078      -3.38210737       1.65358990
H        1.28481851      -4.27685981      -0.64398857
H        0.85066373      -2.80011888      -2.58401976
H        0.18180058      -0.42136179      -2.20004232
18
Properties=species:S:1:pos:R:3 charge=-1 charge_a=0 charge_b=-1 selection_a=1-4 selection_b=5-18 scaling=1.25 benchmark_Eint=-8.405 benchmark_unit=kcal/mol group=NH-Oa pbc="F F F"
N       -1.56883222       4.28646734       0.38736676
H       -1.19349208       3.56927305      -0.24134393
H       -1.37892302       3.86701918       1.29338730
H       -2.57678304       4.24200074       0.27781910
O       -0.25814217       1.28896170      -0.99526910
C       -0.05854747       0.62025889       0.04759710
O       -0.15152116       0.98466277       1.23905896
C        0.35532558      -0.84832294      -0.17638622
C        0.60276729      -1.68905366       0.90697030
C        0.97548742      -3.01394900       0.71125717
C        1.10677945      -3.51906720      -0.57896764
C        0.86221864      -2.68725721      -1.66760525
C        0.48977201      -1.36331000      -1.46422805
H        0.49334071      -1.26951490       1.89687273
H        1.16465277      -3.65574473       1.56311888
H        1.39706049      -4.55049717      -0.73445959
H        0.96290572      -3.07375625      -2.67449078
H        0.29404257      -0.69499915      -2.29051334
18
Properties=species:S:1:pos:R:3 charge=-1 charge_a=0 charge_b=-1 selection_a=1-4 selection_b=5-18 scaling=1.5 benchmark_Eint=-6.155 benchmark_unit=kcal/mol group=NH-Oa pbc="F F F"
N       -1.56883222       4.28646734       0.38736676
H       -1.19349208       3.56927305      -0.24134393
H       -1.37892302       3.86701918       1.29338730
H       -2.57678304       4.24200074       0.27781910
O       -0.07107219       0.83289943      -1.14605413
C        0.12852251       0.16419662      -0.10318794
O        0.03554882       0.52860050       1.08827393
C        0.54239556      -1.30438521      -0.32717125
C        0.78983727      -2.14511593       0.75618527
C        1.16255740      -3.47001127       0.56047213
C        1.29384943      -3.97512947      -0.72975267
C        1.04928862      -3.14331948      -1.81839029
C        0.67684199      -1.81937228      -1.61501308
H        0.68041069      -1.72557717       1.74608770
H        1.35172275      -4.11180700       1.41233385
H        1.58413047      -5.00655944      -0.88524462
H        1.14997570      -3.52981852      -2.82527582
H        0.48111255      -1.15106142      -2.44129837
18
Properties=species:S:1:pos:R:3 charge=-1 charge_a=0 charge_b=-1 selection_a=1-4 selection_b=5-18 scaling=2.0 benchmark_Eint=-3.48 benchmark_unit=kcal/mol group=NH-Oa pbc="F F F"
N       -1.56883222       4.28646734       0.38736676
H       -1.19349208       3.56927305      -0.24134393
H       -1.37892302       3.86701918       1.29338730
H       -2.57678304       4.24200074       0.27781910
O        0.30306777      -0.07922511      -1.44762420
C        0.50266247      -0.74792792      -0.40475800
O        0.40968878      -0.38352404       0.78670386
C        0.91653552      -2.21650975      -0.62874132
C        1.16397723      -3.05724047       0.45461520
C        1.53669736      -4.38213581       0.25890206
C        1.66798939      -4.88725401      -1.03132274
C        1.42342858      -4.05544402      -2.11996036
C        1.05098195      -2.73149682      -1.91658315
H        1.05455065      -2.63770171       1.44451763
H        1.72586271      -5.02393154       1.11076378
H        1.95827043      -5.91868398      -1.18681469
H        1.52411566      -4.44194306      -3.12684588
H        0.85525251      -2.06318597      -2.74286844
28
Properties=species:S:1:pos:R:3 charge=-1 charge_a=0 charge_b=-1 selection_a=1-14 selection_b=15-28 scaling=0.8 benchmark_Eint=-12.988 benchmark_unit=kcal/mol group=NH-Oa pbc="F F F"
H        1.88351692       0.46629666      -0.41078392
H        5.48509163       2.80980644      -0.11283741
H        4.30662144       0.62472562       0.02606342
H        1.76999121       4.68968169      -1.14166745
H       -0.20071329       1.62578471      -0.78170877
H        4.18152022       4.84269717      -0.69638663
H       -0.21118346       3.31242157      -1.07779865
C        4.42370757       2.74428699      -0.30881672
C        3.75654854       1.52029935      -0.23451772
C        2.39911525       1.41748720      -0.48086740
C        1.65268734       2.56447488      -0.81726837
C        2.32784886       3.79641443      -0.88566859
C        3.69022612       3.87926210      -0.63546403
N        0.31758290       2.45861272      -1.10522293
O       -1.07171562       0.59927480      -0.31098388
C       -0.61184554      -0.56017019      -0.13567171
O        0.56197593      -0.95055156      -0.28379406
C       -1.63285924      -1.61416191       0.31672517
C       -1.23410090      -2.92982405       0.54308800
C       -2.15101774      -3.89063774       0.95231707
C       -3.48590293      -3.54580361       1.14132772
C       -3.89331870      -2.23432716       0.91768138
C       -2.97131867      -1.27789928       0.50847375
H       -0.19189547      -3.16934360       0.38865001
H       -1.82763009      -4.90958285       1.12483145
H       -4.20205002      -4.29237149       1.46010163
H       -4.93065081      -1.95963020       1.06309836
H       -3.26154512      -0.25307384       0.32815286
28
Properties=species:S:1:pos:R:3 charge=-1 charge_a=0 charge_b=-1 selection_a=1-14 selection_b=15-28 scaling=0.85 benchmark_Eint=-16.454 benchmark_unit=kcal/mol group=NH-Oa pbc="F F F"
H        1.88351692       0.46629666      -0.41078392
H        5.48509163       2.80980644      -0.11283741
H        4.30662144       0.62472562       0.02606342
H        1.76999121       4.68968169      -1.14166745
H       -0.20071329       1.62578471      -0.78170877
H        4.18152022       4.84269717      -0.69638663
H       -0.21118346       3.31242157      -1.07779865
C        4.42370757       2.74428699      -0.30881672
C        3.75654854       1.52029935      -0.23451772
C        2.39911525       1.41748720      -0.48086740
C        1.65268734       2.56447488      -0.81726837
C        2.32784886       3.79641443      -0.88566859
C        3.69022612       3.87926210      -0.63546403
N        0.31758290       2.45861272      -1.10522293
O       -1.12615327       0.53511793      -0.28156357
C       -0.66628318      -0.62432705      -0.10625140
O        0.50753828      -1.01470843      -0.25437375
C       -1.68729689      -1.67831878       0.34614548
C       -1.28853854      -2.99398091       0.57250831
C       -2.20545538      -3.95479461       0.98173738
C       -3.54034057      -3.60996048       1.17074802
C       -3.94775635      -2.29848403       0.94710168
C       -3.02575632      -1.34205615       0.53789406
H       -0.24633311      -3.23350047       0.41807032
H       -1.88206773      -4.97373972       1.15425176
H       -4.25648766      -4.35652836       1.48952193
H       -4.98508846      -2.02378707       1.09251867
H       -3.31598276      -0.31723070       0.35757317
28
Properties=species:S:1:pos:R:3 charge=-1 charge_a=0 charge_b=-1 selection_a=1-14 selection_b=15-28 scaling=0.9 benchmark_Eint=-18.458 benchmark_unit=kcal/mol group=NH-Oa pbc="F F F"
H        1.88351692       0.46629666      -0.41078392
H        5.48509163       2.80980644      -0.11283741
H        4.30662144       0.62472562       0.02606342
H        1.76999121       4.68968169      -1.14166745
H       -0.20071329       1.62578471      -0.78170877
H        4.18152022       4.84269717      -0.69638663
H       -0.21118346       3.31242157      -1.07779865
C        4.42370757       2.74428699      -0.30881672
C        3.75654854       1.52029935      -0.23451772
C        2.39911525       1.41748720      -0.48086740
C        1.65268734       2.56447488      -0.81726837
C        2.32784886       3.79641443      -0.88566859
C        3.69022612       3.87926210      -0.63546403
N        0.31758290       2.45861272      -1.10522293
O       -1.18059091       0.47096107      -0.25214326
C       -0.72072083      -0.68848392      -0.07683110
O        0.45310064      -1.07886530      -0.22495345
C       -1.74173454      -1.74247565       0.37556578
C       -1.34297619      -3.05813778       0.60192861
C       -2.25989303      -4.01895148       1.01115768
C       -3.59477822      -3.67411735       1.20016833
C       -4.00219399      -2.36264090       0.97652199
C       -3.08019396      -1.40621302       0.56731436
H       -0.30077076      -3.29765734       0.44749062
H       -1.93650538      -5.03789659       1.18367206
H       -4.31092531      -4.42068523       1.51894224
H       -5.03952610      -2.08794393       1.12193897
H       -3.37042041      -0.38138757       0.38699347
28
Properties=species:S:1:pos:R:3 charge=-1 charge_a=0 charge_b=-1 selection_a=1-14 selection_b=15-28 scaling=0.95 benchmark_Eint=-19.442 benchmark_unit=kcal/mol group=NH-Oa pbc="F F F"
H        1.88351692       0.46629666      -0.41078392
H        5.48509163       2.80980644      -0.11283741
H        4.30662144       0.62472562       0.02606342
H        1.76999121       4.68968169      -1.14166745
H       -0.20071329       1.62578471      -0.78170877
H        4.18152022       4.84269717      -0.69638663
H       -0.21118346       3.31242157      -1.07779865
C        4.42370757       2.74428699      -0.30881672
C        3.75654854       1.52029935      -0.23451772
C        2.39911525       1.41748720      -0.48086740
C        1.65268734       2.56447488      -0.81726837
C        2.32784886       3.79641443      -0.88566859
C        3.69022612       3.87926210      -0.63546403
N        0.31758290       2.45861272      -1.10522293
O       -1.23502856       0.40680420      -0.22272296
C       -0.77515847      -0.75264079      -0.04741079
O        0.39866299      -1.14302217      -0.19553314
C       -1.79617218      -1.80663251       0.40498609
C       -1.39741383      -3.12229465       0.63134892
C       -2.31433067      -4.08310835       1.04057799
C       -3.64921586      -3.73827422       1.22958863
C       -4.05663164      -2.42679776       1.00594229
C       -3.13463161      -1.47036988       0.59673467
H       -0.35520840      -3.36181421       0.47691093
H       -1.99094302      -5.10205346       1.21309237
H       -4.36536295      -4.48484210       1.54836255
H       -5.09396375      -2.15210080       1.15135928
H       -3.42485806      -0.44554444       0.41641378
28
Properties=species:S:1:pos:R:3 charge=-1 charge_a=0 charge_b=-1 selection_a=1-14 selection_b=15-28 scaling=1.0 benchmark_Eint=-19.722 benchmark_unit=kcal/mol group=NH-Oa pbc="F F F"
H        1.88351692       0.46629666      -0.41078392
H        5.48509163       2.80980644      -0.11283741
H        4.30662144       0.62472562       0.02606342
H        1.76999121       4.68968169      -1.14166745
H       -0.20071329       1.62578471      -0.78170877
H        4.18152022       4.84269717      -0.69638663
H       -0.21118346       3.31242157      -1.07779865
C        4.42370757       2.74428699      -0.30881672
C        3.75654854       1.52029935      -0.23451772
C        2.39911525       1.41748720      -0.48086740
C        1.65268734       2.56447488      -0.81726837
C        2.32784886       3.79641443      -0.88566859
C        3.69022612       3.87926210      -0.63546403
N        0.31758290       2.45861272      -1.10522293
O       -1.28946620       0.34264733      -0.19330265
C       -0.82959612      -0.81679766      -0.01799048
O        0.34422535      -1.20717904      -0.16611284
C       -1.85060983      -1.87078938       0.43440639
C       -1.45185148      -3.18645152       0.66076922
C       -2.36876832      -4.14726522       1.06999830
C       -3.70365351      -3.80243109       1.25900894
C       -4.11106929      -2.49095463       1.03536260
C       -3.18906926      -1.53452675       0.62615497
H       -0.40964605      -3.42597108       0.50633124
H       -2.04538067      -5.16621033       1.24251267
H       -4.41980060      -4.54899897       1.57778285
H       -5.14840139      -2.21625767       1.18077959
H       -3.47929570      -0.50970131       0.44583408
28
Properties=species:S:1:pos:R:3 charge=-1 charge_a=0 charge_b=-1 selection_a=1-14 selection_b=15-28 scaling=1.05 benchmark_Eint=-19.524 benchmark_unit=kcal/mol group=NH-Oa pbc="F F F"
H        1.88351692       0.46629666      -0.41078392
H        5.48509163       2.80980644      -0.11283741
H        4.30662144       0.62472562       0.02606342
H        1.76999121       4.68968169      -1.14166745
H       -0.20071329       1.62578471      -0.78170877
H        4.18152022       4.84269717      -0.69638663
H       -0.21118346       3.31242157      -1.07779865
C        4.42370757       2.74428699      -0.30881672
C        3.75654854       1.52029935      -0.23451772
C        2.39911525       1.41748720      -0.48086740
C        1.65268734       2.56447488      -0.81726837
C        2.32784886       3.79641443      -0.88566859
C        3.69022612       3.87926210      -0.63546403
N        0.31758290       2.45861272      -1.10522293
O       -1.34390385       0.27849046      -0.16388235
C       -0.88403376      -0.88095453       0.01142982
O        0.28978770      -1.27133590      -0.13669253
C       -1.90504747      -1.93494625       0.46382670
C       -1.50628912      -3.25060839       0.69018953
C       -2.42320596      -4.21142208       1.09941860
C       -3.75809115      -3.86658796       1.28842924
C       -4.16550693      -2.55511150       1.06478290
C       -3.24350690      -1.59868362       0.65557528
H       -0.46408370      -3.49012795       0.53575154
H       -2.09981831      -5.23036720       1.27193298
H       -4.47423824      -4.61315583       1.60720316
H       -5.20283904      -2.28041454       1.21019989
H       -3.53373335      -0.57385818       0.47525439
28
Properties=species:S:1:pos:R:3 charge=-1 charge_a=0 charge_b=-1 selection_a=1-14 selection_b=15-28 scaling=1.1 benchmark_Eint=-19.013 benchmark_unit=kcal/mol group=NH-Oa pbc="F F F"
H        1.88351692       0.46629666      -0.41078392
H        5.48509163       2.80980644      -0.11283741
H        4.30662144       0.62472562       0.02606342
H        1.76999121       4.68968169      -1.14166745
H       -0.20071329       1.62578471      -0.78170877
H        4.18152022       4.84269717      -0.69638663
H       -0.21118346       3.31242157      -1.07779865
C        4.42370757       2.74428699      -0.30881672
C        3.75654854       1.52029935      -0.23451772
C        2.39911525       1.41748720      -0.48086740
C        1.65268734       2.56447488      -0.81726837
C        2.32784886       3.79641443      -0.88566859
C        3.69022612       3.87926210      -0.63546403
N        0.31758290       2.45861272      -1.10522293
O       -1.39834149       0.21433359      -0.13446204
C       -0.93847141      -0.94511140       0.04085013
O        0.23535005      -1.33549277      -0.10727223
C       -1.95948512      -1.99910312       0.49324701
C       -1.56072677      -3.31476526       0.71960983
C       -2.47764361      -4.27557895       1.12883891
C       -3.81252880      -3.93074483       1.31784955
C       -4.21994458      -2.61926837       1.09420321
C       -3.29794455      -1.66284049       0.68499559
H       -0.51852134      -3.55428481       0.56517185
H       -2.15425596      -5.29452406       1.30135329
H       -4.52867589      -4.67731270       1.63662346
H       -5.25727669      -2.34457141       1.23962020
H       -3.58817099      -0.63801505       0.50467469
28
Properties=species:S:1:pos:R:3 charge=-1 charge_a=0 charge_b=-1 selection_a=1-14 selection_b=15-28 scaling=1.25 benchmark_Eint=-16.602 benchmark_unit=kcal/mol group=NH-Oa pbc="F F F"
H        1.88351692       0.46629666      -0.41078392
H        5.48509163       2.80980644      -0.11283741
H        4.30662144       0.62472562       0.02606342
H        1.76999121       4.68968169      -1.14166745
H       -0.20071329       1.62578471      -0.78170877
H        4.18152022       4.84269717      -0.69638663
H       -0.21118346       3.31242157      -1.07779865
C        4.42370757       2.74428699      -0.30881672
C        3.75654854       1.52029935      -0.23451772
C        2.39911525       1.41748720      -0.48086740
C        1.65268734       2.56447488      -0.81726837
C        2.32784886       3.79641443      -0.88566859
C        3.69022612       3.87926210      -0.63546403
N        0.31758290       2.45861272      -1.10522293
O       -1.56165443       0.02186298      -0.04620112
C       -1.10178435      -1.13758201       0.12911105
O        0.07203712      -1.52796338      -0.01901131
C       -2.12279806      -2.19157373       0.58150792
C       -1.72403971      -3.50723587       0.80787075
C       -2.64095655      -4.46804956       1.21709983
C       -3.97584174      -4.12321543       1.40611047
C       -4.38325751      -2.81173898       1.18246413
C       -3.46125748      -1.85531110       0.77325650
H       -0.68183428      -3.74675542       0.65343277
H       -2.31756890      -5.48699467       1.38961420
H       -4.69198883      -4.86978331       1.72488438
H       -5.42058962      -2.53704202       1.32788111
H       -3.75148393      -0.83048566       0.59293561
28
Properties=species:S:1:pos:R:3 charge=-1 charge_a=0 charge_b=-1 selection_a=1-14 selection_b=15-28 scaling=1.5 benchmark_Eint=-12.349 benchmark_unit=kcal/mol group=NH-Oa pbc="F F F"
H        1.88351692       0.46629666      -0.41078392
H        5.48509163       2.80980644      -0.11283741
H        4.30662144       0.62472562       0.02606342
H        1.76999121       4.68968169      -1.14166745
H       -0.20071329       1.62578471      -0.78170877
H        4.18152022       4.84269717      -0.69638663
H       -0.21118346       3.31242157      -1.07779865
C        4.42370757       2.74428699      -0.30881672
C        3.75654854       1.52029935      -0.23451772
C        2.39911525       1.41748720      -0.48086740
C        1.65268734       2.56447488      -0.81726837
C        2.32784886       3.79641443      -0.88566859
C        3.69022612       3.87926210      -0.63546403
N        0.31758290       2.45861272      -1.10522293
O       -1.83384266      -0.29892136       0.10090041
C       -1.37397257      -1.45836635       0.27621257
O       -0.20015111      -1.84874772       0.12809022
C       -2.39498628      -2.51235807       0.72860945
C       -1.99622793      -3.82802021       0.95497228
C       -2.91314477      -4.78883390       1.36420135
C       -4.24802996      -4.44399978       1.55321200
C       -4.65544574      -3.13252332       1.32956566
C       -3.73344571      -2.17609544       0.92035803
H       -0.95402250      -4.06753977       0.80053429
H       -2.58975712      -5.80777902       1.53671573
H       -4.96417705      -5.19056765       1.87198591
H       -5.69277785      -2.85782636       1.47498264
H       -4.02367216      -1.15127000       0.74003714
28
Properties=species:S:1:pos:R:3 charge=-1 charge_a=0 charge_b=-1 selection_a=1-14 selection_b=15-28 scaling=2.0 benchmark_Eint=-6.929 benchmark_unit=kcal/mol group=NH-Oa pbc="F F F"
H        1.88351692       0.46629666      -0.41078392
H        5.48509163       2.80980644      -0.11283741
H        4.30662144       0.62472562       0.02606342
H        1.76999121       4.68968169      -1.14166745
H       -0.20071329       1.62578471      -0.78170877
H        4.18152022       4.84269717      -0.69638663
H       -0.21118346       3.31242157      -1.07779865
C        4.42370757       2.74428699      -0.30881672
C        3.75654854       1.52029935      -0.23451772
C        2.39911525       1.41748720      -0.48086740
C        1.65268734       2.56447488      -0.81726837
C        2.32784886       3.79641443      -0.88566859
C        3.69022612       3.87926210      -0.63546403
N        0.31758290       2.45861272      -1.10522293
O       -2.37821911      -0.94049005       0.39510346
C       -1.91834903      -2.09993504       0.57041563
O       -0.74452757      -2.49031641       0.42229328
C       -2.93936274      -3.15392676       1.02281251
C       -2.54060439      -4.46958890       1.24917534
C       -3.45752123      -5.43040259       1.65840441
C       -4.79240642      -5.08556847       1.84741505
C       -5.19982220      -3.77409201       1.62376871
C       -4.27782217      -2.81766413       1.21456109
H       -1.49839896      -4.70910845       1.09473735
H       -3.13413358      -6.44934770       1.83091879
H       -5.50855351      -5.83213634       2.16618897
H       -6.23715431      -3.49939505       1.76918570
H       -4.56804861      -1.79283869       1.03424020
17
Properties=species:S:1:pos:R:3 charge=-1 charge_a=0 charge_b=-1 selection_a=1-14 selection_b=15-17 scaling=0.8 benchmark_Eint=-14.52 benchmark_unit=kcal/mol group=NH-Oa pbc="F F F"
H        1.24642670      -1.19871582      -0.20809900
H        3.96216476       2.13276617      -0.26366625
H        3.54373292      -0.31571760      -0.15816134
H       -0.27156046       2.79700864      -0.46912530
H       -1.13615378      -0.75376236      -0.12930121
H        2.01905639       3.67509818      -0.41254545
H       -1.71925665       0.83923794      -0.25041743
C        2.95325409       1.74570988      -0.28886410
C        2.71119927       0.37292332      -0.23224691
C        1.42493946      -0.13394989      -0.26271935
C        0.30966081       0.72714847      -0.35405275
C        0.56558434       2.11304527      -0.40337649
C        1.86094498       2.60427608      -0.37232146
N       -0.94826909       0.21951496      -0.42669983
N       -2.55198953      -2.22034621       0.73239033
O       -1.36414422      -2.10526460       0.31172956
O       -3.26078556      -1.19729999       0.65841694
17
Properties=species:S:1:pos:R:3 charge=-1 charge_a=0 charge_b=-1 selection_a=1-14 selection_b=15-17 scaling=0.85 benchmark_Eint=-17.29 benchmark_unit=kcal/mol group=NH-Oa pbc="F F F"
H        1.24642670      -1.19871582      -0.20809900
H        3.96216476       2.13276617      -0.26366625
H        3.54373292      -0.31571760      -0.15816134
H       -0.27156046       2.79700864      -0.46912530
H       -1.13615378      -0.75376236      -0.12930121
H        2.01905639       3.67509818      -0.41254545
H       -1.71925665       0.83923794      -0.25041743
C        2.95325409       1.74570988      -0.28886410
C        2.71119927       0.37292332      -0.23224691
C        1.42493946      -0.13394989      -0.26271935
C        0.30966081       0.72714847      -0.35405275
C        0.56558434       2.11304527      -0.40337649
C        1.86094498       2.60427608      -0.37232146
N       -0.94826909       0.21951496      -0.42669983
N       -2.56623893      -2.30481510       0.75995475
O       -1.37839362      -2.18973349       0.33929398
O       -3.27503497      -1.28176888       0.68598136
17
Properties=species:S:1:pos:R:3 charge=-1 charge_a=0 charge_b=-1 selection_a=1-14 selection_b=15-17 scaling=0.9 benchmark_Eint=-18.896 benchmark_unit=kcal/mol group=NH-Oa pbc="F F F"
H        1.24642670      -1.19871582      -0.20809900
H        3.96216476       2.13276617      -0.26366625
H        3.54373292      -0.31571760      -0.15816134
H       -0.27156046       2.79700864      -0.46912530
H       -1.13615378      -0.75376236      -0.12930121
H        2.01905639       3.67509818      -0.41254545
H       -1.71925665       0.83923794      -0.25041743
C        2.95325409       1.74570988      -0.28886410
C        2.71119927       0.37292332      -0.23224691
C        1.42493946      -0.13394989      -0.26271935
C        0.30966081       0.72714847      -0.35405275
C        0.56558434       2.11304527      -0.40337649
C        1.86094498       2.60427608      -0.37232146
N       -0.94826909       0.21951496      -0.42669983
N       -2.58048833      -2.38928399       0.78751917
O       -1.39264302      -2.27420238       0.36685840
O       -3.28928437      -1.36623777       0.71354578
17
Properties=species:S:1:pos:R:3 charge=-1 charge_a=0 charge_b=-1 selection_a=1-14 selection_b=15-17 scaling=0.95 benchmark_Eint=-19.689 benchmark_unit=kcal/mol group=NH-Oa pbc="F F F"
H        1.24642670      -1.19871582      -0.20809900
H        3.96216476       2.13276617      -0.26366625
H        3.54373292      -0.31571760      -0.15816134
H       -0.27156046       2.79700864      -0.46912530
H       -1.13615378      -0.75376236      -0.12930121
H        2.01905639       3.67509818      -0.41254545
H       -1.71925665       0.83923794      -0.25041743
C        2.95325409       1.74570988      -0.28886410
C        2.71119927       0.37292332      -0.23224691
C        1.42493946      -0.13394989      -0.26271935
C        0.30966081       0.72714847      -0.35405275
C        0.56558434       2.11304527      -0.40337649
C        1.86094498       2.60427608      -0.37232146
N       -0.94826909       0.21951496      -0.42669983
N       -2.59473774      -2.47375288       0.81508360
O       -1.40689243      -2.35867126       0.39442282
O       -3.30353377      -1.45070666       0.74111021
17
Properties=species:S:1:pos:R:3 charge=-1 charge_a=0 charge_b=-1 selection_a=1-14 selection_b=15-17 scaling=1.0 benchmark_Eint=-19.918 benchmark_unit=kcal/mol group=NH-Oa pbc="F F F"
H        1.24642670      -1.19871582      -0.20809900
H        3.96216476       2.13276617      -0.26366625
H        3.54373292      -0.31571760      -0.15816134
H       -0.27156046       2.79700864      -0.46912530
H       -1.13615378      -0.75376236      -0.12930121
H        2.01905639       3.67509818      -0.41254545
H       -1.71925665       0.83923794      -0.25041743
C        2.95325409       1.74570988      -0.28886410
C        2.71119927       0.37292332      -0.23224691
C        1.42493946      -0.13394989      -0.26271935
C        0.30966081       0.72714847      -0.35405275
C        0.56558434       2.11304527      -0.40337649
C        1.86094498       2.60427608      -0.37232146
N       -0.94826909       0.21951496      -0.42669983
N       -2.60898714      -2.55822177       0.84264802
O       -1.42114183      -2.44314016       0.42198725
O       -3.31778317      -1.53517555       0.76867463
17
Properties=species:S:1:pos:R:3 charge=-1 charge_a=0 charge_b=-1 selection_a=1-14 selection_b=15-17 scaling=1.05 benchmark_Eint=-19.761 benchmark_unit=kcal/mol group=NH-Oa pbc="F F F"
H        1.24642670      -1.19871582      -0.20809900
H        3.96216476       2.13276617      -0.26366625
H        3.54373292      -0.31571760      -0.15816134
H       -0.27156046       2.79700864      -0.46912530
H       -1.13615378      -0.75376236      -0.12930121
H        2.01905639       3.67509818      -0.41254545
H       -1.71925665       0.83923794      -0.25041743
C        2.95325409       1.74570988      -0.28886410
C        2.71119927       0.37292332      -0.23224691
C        1.42493946      -0.13394989      -0.26271935
C        0.30966081       0.72714847      -0.35405275
C        0.56558434       2.11304527      -0.40337649
C        1.86094498       2.60427608      -0.37232146
N       -0.94826909       0.21951496      -0.42669983
N       -2.62323654      -2.64269066       0.87021244
O       -1.43539123      -2.52760905       0.44955167
O       -3.33203257      -1.61964444       0.79623905
17
Properties=species:S:1:pos:R:3 charge=-1 charge_a=0 charge_b=-1 selection_a=1-14 selection_b=15-17 scaling=1.1 benchmark_Eint=-19.344 benchmark_unit=kcal/mol group=NH-Oa pbc="F F F"
H        1.24642670      -1.19871582      -0.20809900
H        3.96216476       2.13276617      -0.26366625
H        3.54373292      -0.31571760      -0.15816134
H       -0.27156046       2.79700864      -0.46912530
H       -1.13615378      -0.75376236      -0.12930121
H        2.01905639       3.67509818      -0.41254545
H       -1.71925665       0.83923794      -0.25041743
C        2.95325409       1.74570988      -0.28886410
C        2.71119927       0.37292332      -0.23224691
C        1.42493946      -0.13394989      -0.26271935
C        0.30966081       0.72714847      -0.35405275
C        0.56558434       2.11304527      -0.40337649
C        1.86094498       2.60427608      -0.37232146
N       -0.94826909       0.21951496      -0.42669983
N       -2.63748594      -2.72715955       0.89777686
O       -1.44964063      -2.61207793       0.47711609
O       -3.34628198      -1.70411333       0.82380348
17
Properties=species:S:1:pos:R:3 charge=-1 charge_a=0 charge_b=-1 selection_a=1-14 selection_b=15-17 scaling=1.25 benchmark_Eint=-17.316 benchmark_unit=kcal/mol group=NH-Oa pbc="F F F"
H        1.24642670      -1.19871582      -0.20809900
H        3.96216476       2.13276617      -0.26366625
H        3.54373292      -0.31571760      -0.15816134
H       -0.27156046       2.79700864      -0.46912530
H       -1.13615378      -0.75376236      -0.12930121
H        2.01905639       3.67509818      -0.41254545
H       -1.71925665       0.83923794      -0.25041743
C        2.95325409       1.74570988      -0.28886410
C        2.71119927       0.37292332      -0.23224691
C        1.42493946      -0.13394989      -0.26271935
C        0.30966081       0.72714847      -0.35405275
C        0.56558434       2.11304527      -0.40337649
C        1.86094498       2.60427608      -0.37232146
N       -0.94826909       0.21951496      -0.42669983
N       -2.68023415      -2.98056622       0.98047013
O       -1.49238884      -2.86548460       0.55980936
O       -3.38903018      -1.95752000       0.90649674
17
Properties=species:S:1:pos:R:3 charge=-1 charge_a=0 charge_b=-1 selection_a=1-14 selection_b=15-17 scaling=1.5 benchmark_Eint=-13.515 benchmark_unit=kcal/mol group=NH-Oa pbc="F F F"
H        1.24642670      -1.19871582      -0.20809900
H        3.96216476       2.13276617      -0.26366625
H        3.54373292      -0.31571760      -0.15816134
H       -0.27156046       2.79700864      -0.46912530
H       -1.13615378      -0.75376236      -0.12930121
H        2.01905639       3.67509818      -0.41254545
H       -1.71925665       0.83923794      -0.25041743
C        2.95325409       1.74570988      -0.28886410
C        2.71119927       0.37292332      -0.23224691
C        1.42493946      -0.13394989      -0.26271935
C        0.30966081       0.72714847      -0.35405275
C        0.56558434       2.11304527      -0.40337649
C        1.86094498       2.60427608      -0.37232146
N       -0.94826909       0.21951496      -0.42669983
N       -2.75148116      -3.40291067       1.11829225
O       -1.56363585      -3.28782905       0.69763148
O       -3.46027720      -2.37986445       1.04431886
17
Properties=species:S:1:pos:R:3 charge=-1 charge_a=0 charge_b=-1 selection_a=1-14 selection_b=15-17 scaling=2.0 benchmark_Eint=-8.08 benchmark_unit=kcal/mol group=NH-Oa pbc="F F F"
H        1.24642670      -1.19871582      -0.20809900
H        3.96216476       2.13276617      -0.26366625
H        3.54373292      -0.31571760      -0.15816134
H       -0.27156046       2.79700864      -0.46912530
H       -1.13615378      -0.75376236      -0.12930121
H        2.01905639       3.67509818      -0.41254545
H       -1.71925665       0.83923794      -0.25041743
C        2.95325409       1.74570988      -0.28886410
C        2.71119927       0.37292332      -0.23224691
C        1.42493946      -0.13394989      -0.26271935
C        0.30966081       0.72714847      -0.35405275
C        0.56558434       2.11304527      -0.40337649
C        1.86094498       2.60427608      -0.37232146
N       -0.94826909       0.21951496      -0.42669983
N       -2.89397519      -4.24759957       1.39393648
O       -1.70612988      -4.13251795       0.97327571
O       -3.60277122      -3.22455334       1.31996309
17
Properties=species:S:1:pos:R:3 charge=-1 charge_a=0 charge_b=-1 selection_a=1-10 selection_b=11-17 scaling=0.8 benchmark_Eint=-9.012 benchmark_unit=kcal/mol group=NH-Oa pbc="F F F"
H        1.50130392       2.22797110       2.26079342
H        1.43623957       1.66704280       0.57041190
H        2.12088080       0.62919387       1.83177317
H       -0.05073819      -0.06998968       1.31091639
H       -1.99982533       1.16501840       1.70084512
H       -1.02037998       2.55587471       2.18066049
H       -0.99538711       1.98321614       0.49314295
C        1.33393768       1.35465749       1.61962901
N        0.03849266       0.76213261       1.90744163
C       -1.04199731       1.66360345       1.54413352
C       -0.14238757      -1.60837717      -2.10681521
C       -0.05115348      -0.61818148      -0.91757653
O       -0.15581351      -1.14566980       0.22141059
O        0.11430976       0.58889079      -1.19268953
H        0.63936839      -2.36464291      -2.01228568
H       -0.04090824      -1.09509613      -3.06214157
H       -1.10013929      -2.13146082      -2.07230820
17
Properties=species:S:1:pos:R:3 charge=-1 charge_a=0 charge_b=-1 selection_a=1-10 selection_b=11-17 scaling=0.85 benchmark_Eint=-11.673 benchmark_unit=kcal/mol group=NH-Oa pbc="F F F"
H        1.50130392       2.22797110       2.26079342
H        1.43623957       1.66704280       0.57041190
H        2.12088080       0.62919387       1.83177317
H       -0.05073819      -0.06998968       1.31091639
H       -1.99982533       1.16501840       1.70084512
H       -1.02037998       2.55587471       2.18066049
H       -0.99538711       1.98321614       0.49314295
C        1.33393768       1.35465749       1.61962901
N        0.03849266       0.76213261       1.90744163
C       -1.04199731       1.66360345       1.54413352
C       -0.14895478      -1.67560718      -2.17490932
C       -0.05772069      -0.68541148      -0.98567065
O       -0.16238072      -1.21289981       0.15331648
O        0.10774255       0.52166078      -1.26078364
H        0.63280118      -2.43187291      -2.08037979
H       -0.04747544      -1.16232614      -3.13023568
H       -1.10670650      -2.19869083      -2.14040231
17
Properties=species:S:1:pos:R:3 charge=-1 charge_a=0 charge_b=-1 selection_a=1-10 selection_b=11-17 scaling=0.9 benchmark_Eint=-13.185 benchmark_unit=kcal/mol group=NH-Oa pbc="F F F"
H        1.50130392       2.22797110       2.26079342
H        1.43623957       1.66704280       0.57041190
H        2.12088080       0.62919387       1.83177317
H       -0.05073819      -0.06998968       1.31091639
H       -1.99982533       1.16501840       1.70084512
H       -1.02037998       2.55587471       2.18066049
H       -0.99538711       1.98321614       0.49314295
C        1.33393768       1.35465749       1.61962901
N        0.03849266       0.76213261       1.90744163
C       -1.04199731       1.66360345       1.54413352
C       -0.15552199      -1.74283719      -2.24300344
C       -0.06428790      -0.75264149      -1.05376476
O       -0.16894793      -1.28012981       0.08522236
O        0.10117534       0.45443077      -1.32887776
H        0.62623397      -2.49910292      -2.14847390
H       -0.05404265      -1.22955615      -3.19832979
H       -1.11327370      -2.26592084      -2.20849643
17
Properties=species:S:1:pos:R:3 charge=-1 charge_a=0 charge_b=-1 selection_a=1-10 selection_b=11-17 scaling=0.95 benchmark_Eint=-13.903 benchmark_unit=kcal/mol group=NH-Oa pbc="F F F"
H        1.50130392       2.22797110       2.26079342
H        1.43623957       1.66704280       0.57041190
H        2.12088080       0.62919387       1.83177317
H       -0.05073819      -0.06998968       1.31091639
H       -1.99982533       1.16501840       1.70084512
H       -1.02037998       2.55587471       2.18066049
H       -0.99538711       1.98321614       0.49314295
C        1.33393768       1.35465749       1.61962901
N        0.03849266       0.76213261       1.90744163
C       -1.04199731       1.66360345       1.54413352
C       -0.16208920      -1.81006719      -2.31109755
C       -0.07085510      -0.81987150      -1.12185887
O       -0.17551513      -1.34735982       0.01712825
O        0.09460813       0.38720077      -1.39697187
H        0.61966676      -2.56633293      -2.21656802
H       -0.06060986      -1.29678615      -3.26642391
H       -1.11984091      -2.33315084      -2.27659054
17
Properties=species:S:1:pos:R:3 charge=-1 charge_a=0 charge_b=-1 selection_a=1-10 selection_b=11-17 scaling=1.0 benchmark_Eint=-14.08 benchmark_unit=kcal/mol group=NH-Oa pbc="F F F"
H        1.50130392       2.22797110       2.26079342
H        1.43623957       1.66704280       0.57041190
H        2.12088080       0.62919387       1.83177317
H       -0.05073819      -0.06998968       1.31091639
H       -1.99982533       1.16501840       1.70084512
H       -1.02037998       2.55587471       2.18066049
H       -0.99538711       1.98321614       0.49314295
C        1.33393768       1.35465749       1.61962901
N        0.03849266       0.76213261       1.90744163
C       -1.04199731       1.66360345       1.54413352
C       -0.16865640      -1.87729720      -2.37919166
C       -0.07742231      -0.88710150      -1.18995298
O       -0.18208234      -1.41458983      -0.05096586
O        0.08804093       0.31997076      -1.46506598
H        0.61309956      -2.63356293      -2.28466213
H       -0.06717707      -1.36401616      -3.33451802
H       -1.12640812      -2.40038085      -2.34468465
17
Properties=species:S:1:pos:R:3 charge=-1 charge_a=0 charge_b=-1 selection_a=1-10 selection_b=11-17 scaling=1.05 benchmark_Eint=-13.896 benchmark_unit=kcal/mol group=NH-Oa pbc="F F F"
H        1.50130392       2.22797110       2.26079342
H        1.43623957       1.66704280       0.57041190
H        2.12088080       0.62919387       1.83177317
H       -0.05073819      -0.06998968       1.31091639
H       -1.99982533       1.16501840       1.70084512
H       -1.02037998       2.55587471       2.18066049
H       -0.99538711       1.98321614       0.49314295
C        1.33393768       1.35465749       1.61962901
N        0.03849266       0.76213261       1.90744163
C       -1.04199731       1.66360345       1.54413352
C       -0.17522361      -1.94452721      -2.44728577
C       -0.08398952      -0.95433151      -1.25804709
O       -0.18864955      -1.48181983      -0.11905997
O        0.08147372       0.25274075      -1.53316009
H        0.60653235      -2.70079294      -2.35275624
H       -0.07374427      -1.43124617      -3.40261213
H       -1.13297533      -2.46761086      -2.41277876
17
Properties=species:S:1:pos:R:3 charge=-1 charge_a=0 charge_b=-1 selection_a=1-10 selection_b=11-17 scaling=1.1 benchmark_Eint=-13.481 benchmark_unit=kcal/mol group=NH-Oa pbc="F F F"
H        1.50130392       2.22797110       2.26079342
H        1.43623957       1.66704280       0.57041190
H        2.12088080       0.62919387       1.83177317
H       -0.05073819      -0.06998968       1.31091639
H       -1.99982533       1.16501840       1.70084512
H       -1.02037998       2.55587471       2.18066049
H       -0.99538711       1.98321614       0.49314295
C        1.33393768       1.35465749       1.61962901
N        0.03849266       0.76213261       1.90744163
C       -1.04199731       1.66360345       1.54413352
C       -0.18179082      -2.01175721      -2.51537989
C       -0.09055673      -1.02156152      -1.32614121
O       -0.19521676      -1.54904984      -0.18715409
O        0.07490651       0.18551075      -1.60125421
H        0.59996514      -2.76802295      -2.42085035
H       -0.08031148      -1.49847617      -3.47070624
H       -1.13954253      -2.53484086      -2.48087288
17
Properties=species:S:1:pos:R:3 charge=-1 charge_a=0 charge_b=-1 selection_a=1-10 selection_b=11-17 scaling=1.25 benchmark_Eint=-11.619 benchmark_unit=kcal/mol group=NH-Oa pbc="F F F"
H        1.50130392       2.22797110       2.26079342
H        1.43623957       1.66704280       0.57041190
H        2.12088080       0.62919387       1.83177317
H       -0.05073819      -0.06998968       1.31091639
H       -1.99982533       1.16501840       1.70084512
H       -1.02037998       2.55587471       2.18066049
H       -0.99538711       1.98321614       0.49314295
C        1.33393768       1.35465749       1.61962901
N        0.03849266       0.76213261       1.90744163
C       -1.04199731       1.66360345       1.54413352
C       -0.20149244      -2.21344724      -2.71966222
C       -0.11025835      -1.22325154      -1.53042354
O       -0.21491838      -1.75073986      -0.39143642
O        0.05520489      -0.01617928      -1.80553654
H        0.58026352      -2.96971297      -2.62513269
H       -0.10001310      -1.70016620      -3.67498858
H       -1.15924416      -2.73653089      -2.68515521
17
Properties=species:S:1:pos:R:3 charge=-1 charge_a=0 charge_b=-1 selection_a=1-10 selection_b=11-17 scaling=1.5 benchmark_Eint=-8.462 benchmark_unit=kcal/mol group=NH-Oa pbc="F F F"
H        1.50130392       2.22797110       2.26079342
H        1.43623957       1.66704280       0.57041190
H        2.12088080       0.62919387       1.83177317
H       -0.05073819      -0.06998968       1.31091639
H       -1.99982533       1.16501840       1.70084512
H       -1.02037998       2.55587471       2.18066049
H       -0.99538711       1.98321614       0.49314295
C        1.33393768       1.35465749       1.61962901
N        0.03849266       0.76213261       1.90744163
C       -1.04199731       1.66360345       1.54413352
C       -0.23432848      -2.54959727      -3.06013279
C       -0.14309439      -1.55940158      -1.87089411
O       -0.24775442      -2.08688990      -0.73190698
O        0.02236885      -0.35232931      -2.14600710
H        0.54742748      -3.30586300      -2.96560325
H       -0.13284914      -2.03631623      -4.01545914
H       -1.19208020      -3.07268092      -3.02562577
17
Properties=species:S:1:pos:R:3 charge=-1 charge_a=0 charge_b=-1 selection_a=1-10 selection_b=11-17 scaling=2.0 benchmark_Eint=-4.6 benchmark_unit=kcal/mol group=NH-Oa pbc="F F F"
H        1.50130392       2.22797110       2.26079342
H        1.43623957       1.66704280       0.57041190
H        2.12088080       0.62919387       1.83177317
H       -0.05073819      -0.06998968       1.31091639
H       -1.99982533       1.16501840       1.70084512
H       -1.02037998       2.55587471       2.18066049
H       -0.99538711       1.98321614       0.49314295
C        1.33393768       1.35465749       1.61962901
N        0.03849266       0.76213261       1.90744163
C       -1.04199731       1.66360345       1.54413352
C       -0.30000056      -3.22189734      -3.74107391
C       -0.20876646      -2.23170165      -2.55183523
O       -0.31342649      -2.75918997      -1.41284811
O       -0.04330322      -1.02462938      -2.82694823
H        0.48175541      -3.97816307      -3.64654437
H       -0.19852122      -2.70861630      -4.69640027
H       -1.25775227      -3.74498099      -3.70656690
12
Properties=species:S:1:pos:R:3 charge=-1 charge_a=0 charge_b=-1 selection_a=1-10 selection_b=11-12 scaling=0.8 benchmark_Eint=-14.955 benchmark_unit=kcal/mol group=NH-Oa pbc="F F F"
H        1.52210372       0.96541533       1.67346714
H        1.37339211       1.45615116      -0.02274312
H        2.08528359      -0.11316078       0.38250730
H       -0.07961545      -0.58215038      -0.35343046
H       -2.01231979       0.31636591       0.59812323
H       -1.10737905       1.24092061       1.81194490
H       -1.03727844       1.70889964       0.10427065
C        1.29672612       0.58683977       0.66351664
N        0.02377605      -0.07975171       0.61013582
C       -1.07123470       0.83503931       0.78819225
O       -0.18970997      -1.05832102      -1.49603777
H       -0.28424879      -2.00975527      -1.39447082
12
Properties=species:S:1:pos:R:3 charge=-1 charge_a=0 charge_b=-1 selection_a=1-10 selection_b=11-12 scaling=0.85 benchmark_Eint=-18.686 benchmark_unit=kcal/mol group=NH-Oa pbc="F F F"
H        1.52210372       0.96541533       1.67346714
H        1.37339211       1.45615116      -0.02274312
H        2.08528359      -0.11316078       0.38250730
H       -0.07961545      -0.58215038      -0.35343046
H       -2.01231979       0.31636591       0.59812323
H       -1.10737905       1.24092061       1.81194490
H       -1.03727844       1.70889964       0.10427065
C        1.29672612       0.58683977       0.66351664
N        0.02377605      -0.07975171       0.61013582
C       -1.07123470       0.83503931       0.78819225
O       -0.19659087      -1.08808169      -1.56745072
H       -0.29112969      -2.03951593      -1.46588378
12
Properties=species:S:1:pos:R:3 charge=-1 charge_a=0 charge_b=-1 selection_a=1-10 selection_b=11-12 scaling=0.9 benchmark_Eint=-20.928 benchmark_unit=kcal/mol group=NH-Oa pbc="F F F"
H        1.52210372       0.96541533       1.67346714
H        1.37339211       1.45615116      -0.02274312
H        2.08528359      -0.11316078       0.38250730
H       -0.07961545      -0.58215038      -0.35343046
H       -2.01231979       0.31636591       0.59812323
H       -1.10737905       1.24092061       1.81194490
H       -1.03727844       1.70889964       0.10427065
C        1.29672612       0.58683977       0.66351664
N        0.02377605      -0.07975171       0.61013582
C       -1.07123470       0.83503931       0.78819225
O       -0.20347178      -1.11784235      -1.63886368
H       -0.29801060      -2.06927660      -1.53729673
12
Properties=species:S:1:pos:R:3 charge=-1 charge_a=0 charge_b=-1 selection_a=1-10 selection_b=11-12 scaling=0.95 benchmark_Eint=-22.115 benchmark_unit=kcal/mol group=NH-Oa pbc="F F F"
H        1.52210372       0.96541533       1.67346714
H        1.37339211       1.45615116      -0.02274312
H        2.08528359      -0.11316078       0.38250730
H       -0.07961545      -0.58215038      -0.35343046
H       -2.01231979       0.31636591       0.59812323
H       -1.10737905       1.24092061       1.81194490
H       -1.03727844       1.70889964       0.10427065
C        1.29672612       0.58683977       0.66351664
N        0.02377605      -0.07975171       0.61013582
C       -1.07123470       0.83503931       0.78819225
O       -0.21035269      -1.14760302      -1.71027664
H       -0.30489151      -2.09903727      -1.60870969
12
Properties=species:S:1:pos:R:3 charge=-1 charge_a=0 charge_b=-1 selection_a=1-10 selection_b=11-12 scaling=1.0 benchmark_Eint=-22.556 benchmark_unit=kcal/mol group=NH-Oa pbc="F F F"
H        1.52210372       0.96541533       1.67346714
H        1.37339211       1.45615116      -0.02274312
H        2.08528359      -0.11316078       0.38250730
H       -0.07961545      -0.58215038      -0.35343046
H       -2.01231979       0.31636591       0.59812323
H       -1.10737905       1.24092061       1.81194490
H       -1.03727844       1.70889964       0.10427065
C        1.29672612       0.58683977       0.66351664
N        0.02377605      -0.07975171       0.61013582
C       -1.07123470       0.83503931       0.78819225
O       -0.21723360      -1.17736368      -1.78168959
H       -0.31177242      -2.12879793      -1.68012264
12
Properties=species:S:1:pos:R:3 charge=-1 charge_a=0 charge_b=-1 selection_a=1-10 selection_b=11-12 scaling=1.05 benchmark_Eint=-22.474 benchmark_unit=kcal/mol group=NH-Oa pbc="F F F"
H        1.52210372       0.96541533       1.67346714
H        1.37339211       1.45615116      -0.02274312
H        2.08528359      -0.11316078       0.38250730
H       -0.07961545      -0.58215038      -0.35343046
H       -2.01231979       0.31636591       0.59812323
H       -1.10737905       1.24092061       1.81194490
H       -1.03727844       1.70889964       0.10427065
C        1.29672612       0.58683977       0.66351664
N        0.02377605      -0.07975171       0.61013582
C       -1.07123470       0.83503931       0.78819225
O       -0.22411450      -1.20712435      -1.85310255
H       -0.31865332      -2.15855860      -1.75153560
12
Properties=species:S:1:pos:R:3 charge=-1 charge_a=0 charge_b=-1 selection_a=1-10 selection_b=11-12 scaling=1.1 benchmark_Eint=-22.029 benchmark_unit=kcal/mol group=NH-Oa pbc="F F F"
H        1.52210372       0.96541533       1.67346714
H        1.37339211       1.45615116      -0.02274312
H        2.08528359      -0.11316078       0.38250730
H       -0.07961545      -0.58215038      -0.35343046
H       -2.01231979       0.31636591       0.59812323
H       -1.10737905       1.24092061       1.81194490
H       -1.03727844       1.70889964       0.10427065
C        1.29672612       0.58683977       0.66351664
N        0.02377605      -0.07975171       0.61013582
C       -1.07123470       0.83503931       0.78819225
O       -0.23099541      -1.23688501      -1.92451551
H       -0.32553423      -2.18831926      -1.82294856
12
Properties=species:S:1:pos:R:3 charge=-1 charge_a=0 charge_b=-1 selection_a=1-10 selection_b=11-12 scaling=1.25 benchmark_Eint=-19.561 benchmark_unit=kcal/mol group=NH-Oa pbc="F F F"
H        1.52210372       0.96541533       1.67346714
H        1.37339211       1.45615116      -0.02274312
H        2.08528359      -0.11316078       0.38250730
H       -0.07961545      -0.58215038      -0.35343046
H       -2.01231979       0.31636591       0.59812323
H       -1.10737905       1.24092061       1.81194490
H       -1.03727844       1.70889964       0.10427065
C        1.29672612       0.58683977       0.66351664
N        0.02377605      -0.07975171       0.61013582
C       -1.07123470       0.83503931       0.78819225
O       -0.25163813      -1.32616701      -2.13875437
H       -0.34617695      -2.27760126      -2.03718743
12
Properties=species:S:1:pos:R:3 charge=-1 charge_a=0 charge_b=-1 selection_a=1-10 selection_b=11-12 scaling=1.5 benchmark_Eint=-14.714 benchmark_unit=kcal/mol group=NH-Oa pbc="F F F"
H        1.52210372       0.96541533       1.67346714
H        1.37339211       1.45615116      -0.02274312
H        2.08528359      -0.11316078       0.38250730
H       -0.07961545      -0.58215038      -0.35343046
H       -2.01231979       0.31636591       0.59812323
H       -1.10737905       1.24092061       1.81194490
H       -1.03727844       1.70889964       0.10427065
C        1.29672612       0.58683977       0.66351664
N        0.02377605      -0.07975171       0.61013582
C       -1.07123470       0.83503931       0.78819225
O       -0.28604267      -1.47497034      -2.49581916
H       -0.38058149      -2.42640458      -2.39425221
12
Properties=species:S:1:pos:R:3 charge=-1 charge_a=0 charge_b=-1 selection_a=1-10 selection_b=11-12 scaling=2.0 benchmark_Eint=-7.974 benchmark_unit=kcal/mol group=NH-Oa pbc="F F F"
H        1.52210372       0.96541533       1.67346714
H        1.37339211       1.45615116      -0.02274312
H        2.08528359      -0.11316078       0.38250730
H       -0.07961545      -0.58215038      -0.35343046
H       -2.01231979       0.31636591       0.59812323
H       -1.10737905       1.24092061       1.81194490
H       -1.03727844       1.70889964       0.10427065
C        1.29672612       0.58683977       0.66351664
N        0.02377605      -0.07975171       0.61013582
C       -1.07123470       0.83503931       0.78819225
O       -0.35485174      -1.77257699      -3.20994872
H       -0.44939056      -2.72401124      -3.10838177
14
Properties=species:S:1:pos:R:3 charge=-1 charge_a=0 charge_b=-1 selection_a=1-7 selection_b=8-14 scaling=0.8 benchmark_Eint=-6.922 benchmark_unit=kcal/mol group=NH-Oa pbc="F F F"
N       -0.60695180       1.03834843       2.16607134
H       -0.53323423       0.25243217       1.50730783
H       -0.21276551       0.71538214       3.04113538
C        0.18440515       2.14764120       1.63872338
H       -0.04110987       3.07620077       2.17508311
H        1.27306127       1.99435772       1.67925458
H       -0.06765284       2.27587301       0.58779163
C        0.29598938      -1.55455581      -1.72539922
C        0.00569740      -0.45261671      -0.67230903
O       -0.23486114      -0.87905268       0.48757189
O        0.03217224       0.73139096      -1.06837184
H       -0.59068907      -2.18101460      -1.84461314
H        1.10056763      -2.20137847      -1.37048915
H        0.56621312      -1.12451295      -2.68911733
14
Properties=species:S:1:pos:R:3 charge=-1 charge_a=0 charge_b=-1 selection_a=1-7 selection_b=8-14 scaling=0.85 benchmark_Eint=-9.489 benchmark_unit=kcal/mol group=NH-Oa pbc="F F F"
N       -0.60695180       1.03834843       2.16607134
H       -0.53323423       0.25243217       1.50730783
H       -0.21276551       0.71538214       3.04113538
C        0.18440515       2.14764120       1.63872338
H       -0.04110987       3.07620077       2.17508311
H        1.27306127       1.99435772       1.67925458
H       -0.06765284       2.27587301       0.58779163
C        0.31463770      -1.62527361      -1.78913272
C        0.02434571      -0.52333451      -0.73604252
O       -0.21621283      -0.94977048       0.42383839
O        0.05082056       0.66067316      -1.13210534
H       -0.57204076      -2.25173240      -1.90834663
H        1.11921595      -2.27209627      -1.43422265
H        0.58486143      -1.19523076      -2.75285083
14
Properties=species:S:1:pos:R:3 charge=-1 charge_a=0 charge_b=-1 selection_a=1-7 selection_b=8-14 scaling=0.9 benchmark_Eint=-10.945 benchmark_unit=kcal/mol group=NH-Oa pbc="F F F"
N       -0.60695180       1.03834843       2.16607134
H       -0.53323423       0.25243217       1.50730783
H       -0.21276551       0.71538214       3.04113538
C        0.18440515       2.14764120       1.63872338
H       -0.04110987       3.07620077       2.17508311
H        1.27306127       1.99435772       1.67925458
H       -0.06765284       2.27587301       0.58779163
C        0.33328601      -1.69599141      -1.85286621
C        0.04299403      -0.59405232      -0.79977602
O       -0.19756451      -1.02048829       0.36010490
O        0.06946888       0.58995536      -1.19583884
H       -0.55339244      -2.32245020      -1.97208013
H        1.13786426      -2.34281407      -1.49795614
H        0.60350975      -1.26594856      -2.81658432
14
Properties=species:S:1:pos:R:3 charge=-1 charge_a=0 charge_b=-1 selection_a=1-7 selection_b=8-14 scaling=0.95 benchmark_Eint=-11.644 benchmark_unit=kcal/mol group=NH-Oa pbc="F F F"
N       -0.60695180       1.03834843       2.16607134
H       -0.53323423       0.25243217       1.50730783
H       -0.21276551       0.71538214       3.04113538
C        0.18440515       2.14764120       1.63872338
H       -0.04110987       3.07620077       2.17508311
H        1.27306127       1.99435772       1.67925458
H       -0.06765284       2.27587301       0.58779163
C        0.35193433      -1.76670922      -1.91659971
C        0.06164235      -0.66477012      -0.86350951
O       -0.17891619      -1.09120609       0.29637140
O        0.08811720       0.51923755      -1.25957233
H       -0.53474412      -2.39316801      -2.03581363
H        1.15651258      -2.41353188      -1.56168964
H        0.62215807      -1.33666636      -2.88031782
14
Properties=species:S:1:pos:R:3 charge=-1 charge_a=0 charge_b=-1 selection_a=1-7 selection_b=8-14 scaling=1.0 benchmark_Eint=-11.831 benchmark_unit=kcal/mol group=NH-Oa pbc="F F F"
N       -0.60695180       1.03834843       2.16607134
H       -0.53323423       0.25243217       1.50730783
H       -0.21276551       0.71538214       3.04113538
C        0.18440515       2.14764120       1.63872338
H       -0.04110987       3.07620077       2.17508311
H        1.27306127       1.99435772       1.67925458
H       -0.06765284       2.27587301       0.58779163
C        0.37058265      -1.83742702      -1.98033320
C        0.08029067      -0.73548792      -0.92724301
O       -0.16026787      -1.16192389       0.23263790
O        0.10676552       0.44851975      -1.32330583
H       -0.51609580      -2.46388581      -2.09954712
H        1.17516090      -2.48424968      -1.62542314
H        0.64080639      -1.40738417      -2.94405132
14
Properties=species:S:1:pos:R:3 charge=-1 charge_a=0 charge_b=-1 selection_a=1-7 selection_b=8-14 scaling=1.05 benchmark_Eint=-11.682 benchmark_unit=kcal/mol group=NH-Oa pbc="F F F"
N       -0.60695180       1.03834843       2.16607134
H       -0.53323423       0.25243217       1.50730783
H       -0.21276551       0.71538214       3.04113538
C        0.18440515       2.14764120       1.63872338
H       -0.04110987       3.07620077       2.17508311
H        1.27306127       1.99435772       1.67925458
H       -0.06765284       2.27587301       0.58779163
C        0.38923097      -1.90814482      -2.04406670
C        0.09893898      -0.80620572      -0.99097651
O       -0.14161956      -1.23264169       0.16890441
O        0.12541383       0.37780195      -1.38703933
H       -0.49744748      -2.53460361      -2.16328062
H        1.19380922      -2.55496748      -1.68915663
H        0.65945471      -1.47810197      -3.00778481
14
Properties=species:S:1:pos:R:3 charge=-1 charge_a=0 charge_b=-1 selection_a=1-7 selection_b=8-14 scaling=1.1 benchmark_Eint=-11.322 benchmark_unit=kcal/mol group=NH-Oa pbc="F F F"
N       -0.60695180       1.03834843       2.16607134
H       -0.53323423       0.25243217       1.50730783
H       -0.21276551       0.71538214       3.04113538
C        0.18440515       2.14764120       1.63872338
H       -0.04110987       3.07620077       2.17508311
H        1.27306127       1.99435772       1.67925458
H       -0.06765284       2.27587301       0.58779163
C        0.40787929      -1.97886262      -2.10780020
C        0.11758730      -0.87692353      -1.05471000
O       -0.12297124      -1.30335950       0.10517091
O        0.14406215       0.30708414      -1.45077282
H       -0.47879917      -2.60532142      -2.22701412
H        1.21245754      -2.62568528      -1.75289013
H        0.67810302      -1.54881977      -3.07151831
14
Properties=species:S:1:pos:R:3 charge=-1 charge_a=0 charge_b=-1 selection_a=1-7 selection_b=8-14 scaling=1.25 benchmark_Eint=-9.687 benchmark_unit=kcal/mol group=NH-Oa pbc="F F F"
N       -0.60695180       1.03834843       2.16607134
H       -0.53323423       0.25243217       1.50730783
H       -0.21276551       0.71538214       3.04113538
C        0.18440515       2.14764120       1.63872338
H       -0.04110987       3.07620077       2.17508311
H        1.27306127       1.99435772       1.67925458
H       -0.06765284       2.27587301       0.58779163
C        0.46382424      -2.19101603      -2.29900069
C        0.17353226      -1.08907694      -1.24591049
O       -0.06702628      -1.51551291      -0.08602958
O        0.20000710       0.09493074      -1.64197331
H       -0.42285421      -2.81747482      -2.41821461
H        1.26840249      -2.83783869      -1.94409062
H        0.73404798      -1.76097318      -3.26271880
14
Properties=species:S:1:pos:R:3 charge=-1 charge_a=0 charge_b=-1 selection_a=1-7 selection_b=8-14 scaling=1.5 benchmark_Eint=-6.96 benchmark_unit=kcal/mol group=NH-Oa pbc="F F F"
N       -0.60695180       1.03834843       2.16607134
H       -0.53323423       0.25243217       1.50730783
H       -0.21276551       0.71538214       3.04113538
C        0.18440515       2.14764120       1.63872338
H       -0.04110987       3.07620077       2.17508311
H        1.27306127       1.99435772       1.67925458
H       -0.06765284       2.27587301       0.58779163
C        0.55706583      -2.54460505      -2.61766817
C        0.26677385      -1.44266595      -1.56457798
O        0.02621531      -1.86910192      -0.40469706
O        0.29324869      -0.25865828      -1.96064080
H       -0.32961262      -3.17106384      -2.73688209
H        1.36164408      -3.19142771      -2.26275810
H        0.82728957      -2.11456219      -3.58138628
14
Properties=species:S:1:pos:R:3 charge=-1 charge_a=0 charge_b=-1 selection_a=1-7 selection_b=8-14 scaling=2.0 benchmark_Eint=-3.721 benchmark_unit=kcal/mol group=NH-Oa pbc="F F F"
N       -0.60695180       1.03834843       2.16607134
H       -0.53323423       0.25243217       1.50730783
H       -0.21276551       0.71538214       3.04113538
C        0.18440515       2.14764120       1.63872338
H       -0.04110987       3.07620077       2.17508311
H        1.27306127       1.99435772       1.67925458
H       -0.06765284       2.27587301       0.58779163
C        0.74354901      -3.25178308      -3.25500314
C        0.45325702      -2.14984398      -2.20191294
O        0.21269848      -2.57627995      -1.04203203
O        0.47973187      -0.96583631      -2.59797576
H       -0.14312944      -3.87824187      -3.37421705
H        1.54812726      -3.89860574      -2.90009307
H        1.01377275      -2.82174022      -4.21872125
21
Properties=species:S:1:pos:R:3 charge=-1 charge_a=0 charge_b=-1 selection_a=1-7 selection_b=8-21 scaling=0.8 benchmark_Eint=-7.219 benchmark_unit=kcal/mol group=NH-Oa pbc="F F F"
N       -0.05829024       3.59772493       2.15449981
H       -0.46454315       2.68861978       1.91235428
H        0.84970833       3.34658914       2.52949593
C        0.16443144       4.30539595       0.89225040
H        0.69432769       5.24543645       1.07208527
H        0.72974025       3.71932824       0.15882827
H       -0.79972290       4.55934403       0.44693797
O       -0.79281178       1.28474217       1.21364333
C        0.24342401       0.86096831       0.64487236
O        1.37919659       1.37833059       0.61148182
C        0.08538275      -0.47298873      -0.11036238
C        1.16651420      -1.03895947      -0.78299687
C        1.03058252      -2.24171135      -1.46658911
C       -0.19622733      -2.89863697      -1.48646100
C       -1.28198043      -2.34140328      -0.81761883
C       -1.13884540      -1.13809329      -0.13615630
H        2.10648295      -0.50674669      -0.75031372
H        1.87969899      -2.66985404      -1.98518627
H       -0.30505265      -3.83554141      -2.01805072
H       -2.23960645      -2.84739260      -0.82917052
H       -1.96465038      -0.68256701       0.39121976
21
Properties=species:S:1:pos:R:3 charge=-1 charge_a=0 charge_b=-1 selection_a=1-7 selection_b=8-21 scaling=0.85 benchmark_Eint=-9.509 benchmark_unit=kcal/mol group=NH-Oa pbc="F F F"
N       -0.05829024       3.59772493       2.15449981
H       -0.46454315       2.68861978       1.91235428
H        0.84970833       3.34658914       2.52949593
C        0.16443144       4.30539595       0.89225040
H        0.69432769       5.24543645       1.07208527
H        0.72974025       3.71932824       0.15882827
H       -0.79972290       4.55934403       0.44693797
O       -0.81332857       1.19699982       1.16997389
C        0.22290722       0.77322596       0.60120293
O        1.35867980       1.29058824       0.56781238
C        0.06486596      -0.56073108      -0.15403181
C        1.14599741      -1.12670182      -0.82666631
C        1.01006573      -2.32945371      -1.51025854
C       -0.21674412      -2.98637932      -1.53013043
C       -1.30249722      -2.42914563      -0.86128826
C       -1.15936218      -1.22583564      -0.17982573
H        2.08596616      -0.59448904      -0.79398315
H        1.85918220      -2.75759639      -2.02885571
H       -0.32556944      -3.92328376      -2.06172016
H       -2.26012324      -2.93513495      -0.87283995
H       -1.98516717      -0.77030936       0.34755033
21
Properties=species:S:1:pos:R:3 charge=-1 charge_a=0 charge_b=-1 selection_a=1-7 selection_b=8-21 scaling=0.9 benchmark_Eint=-10.806 benchmark_unit=kcal/mol group=NH-Oa pbc="F F F"
N       -0.05829024       3.59772493       2.15449981
H       -0.46454315       2.68861978       1.91235428
H        0.84970833       3.34658914       2.52949593
C        0.16443144       4.30539595       0.89225040
H        0.69432769       5.24543645       1.07208527
H        0.72974025       3.71932824       0.15882827
H       -0.79972290       4.55934403       0.44693797
O       -0.83384536       1.10925747       1.12630446
C        0.20239043       0.68548361       0.55753349
O        1.33816301       1.20284589       0.52414295
C        0.04434917      -0.64847343      -0.19770125
C        1.12548062      -1.21444417      -0.87033574
C        0.98954894      -2.41719606      -1.55392797
C       -0.23726091      -3.07412167      -1.57379987
C       -1.32301401      -2.51688798      -0.90495770
C       -1.17987897      -1.31357799      -0.22349517
H        2.06544937      -0.68223139      -0.83765259
H        1.83866541      -2.84533874      -2.07252514
H       -0.34608623      -4.01102611      -2.10538959
H       -2.28064003      -3.02287730      -0.91650939
H       -2.00568396      -0.85805171       0.30388089
21
Properties=species:S:1:pos:R:3 charge=-1 charge_a=0 charge_b=-1 selection_a=1-7 selection_b=8-21 scaling=0.95 benchmark_Eint=-11.421 benchmark_unit=kcal/mol group=NH-Oa pbc="F F F"
N       -0.05829024       3.59772493       2.15449981
H       -0.46454315       2.68861978       1.91235428
H        0.84970833       3.34658914       2.52949593
C        0.16443144       4.30539595       0.89225040
H        0.69432769       5.24543645       1.07208527
H        0.72974025       3.71932824       0.15882827
H       -0.79972290       4.55934403       0.44693797
O       -0.85436215       1.02151512       1.08263502
C        0.18187364       0.59774126       0.51386406
O        1.31764622       1.11510354       0.48047352
C        0.02383239      -0.73621578      -0.24137068
C        1.10496383      -1.30218652      -0.91400518
C        0.96903215      -2.50493841      -1.59759741
C       -0.25777769      -3.16186402      -1.61746930
C       -1.34353080      -2.60463033      -0.94862713
C       -1.20039576      -1.40132034      -0.26716460
H        2.04493258      -0.76997374      -0.88132202
H        1.81814862      -2.93308109      -2.11619458
H       -0.36660302      -4.09876846      -2.14905903
H       -2.30115682      -3.11061965      -0.96017882
H       -2.02620075      -0.94579406       0.26021146
21
Properties=species:S:1:pos:R:3 charge=-1 charge_a=0 charge_b=-1 selection_a=1-7 selection_b=8-21 scaling=1.0 benchmark_Eint=-11.577 benchmark_unit=kcal/mol group=NH-Oa pbc="F F F"
N       -0.05829024       3.59772493       2.15449981
H       -0.46454315       2.68861978       1.91235428
H        0.84970833       3.34658914       2.52949593
C        0.16443144       4.30539595       0.89225040
H        0.69432769       5.24543645       1.07208527
H        0.72974025       3.71932824       0.15882827
H       -0.79972290       4.55934403       0.44693797
O       -0.87487894       0.93377277       1.03896559
C        0.16135685       0.50999891       0.47019462
O        1.29712943       1.02736119       0.43680408
C        0.00331560      -0.82395813      -0.28504012
C        1.08444704      -1.38992887      -0.95767461
C        0.94851536      -2.59268076      -1.64126685
C       -0.27829448      -3.24960637      -1.66113873
C       -1.36404759      -2.69237268      -0.99229657
C       -1.22091255      -1.48906269      -0.31083404
H        2.02441579      -0.85771609      -0.92499146
H        1.79763184      -3.02082344      -2.15986401
H       -0.38711981      -4.18651081      -2.19272846
H       -2.32167361      -3.19836200      -1.00384826
H       -2.04671754      -1.03353641       0.21654202
21
Properties=species:S:1:pos:R:3 charge=-1 charge_a=0 charge_b=-1 selection_a=1-7 selection_b=8-21 scaling=1.05 benchmark_Eint=-11.431 benchmark_unit=kcal/mol group=NH-Oa pbc="F F F"
N       -0.05829024       3.59772493       2.15449981
H       -0.46454315       2.68861978       1.91235428
H        0.84970833       3.34658914       2.52949593
C        0.16443144       4.30539595       0.89225040
H        0.69432769       5.24543645       1.07208527
H        0.72974025       3.71932824       0.15882827
H       -0.79972290       4.55934403       0.44693797
O       -0.89539573       0.84603041       0.99529615
C        0.14084006       0.42225655       0.42652519
O        1.27661264       0.93961884       0.39313465
C       -0.01720119      -0.91170048      -0.32870955
C        1.06393025      -1.47767122      -1.00134405
C        0.92799857      -2.68042311      -1.68493628
C       -0.29881127      -3.33734872      -1.70480817
C       -1.38456438      -2.78011504      -1.03596600
C       -1.24142934      -1.57680504      -0.35450347
H        2.00389901      -0.94545844      -0.96866089
H        1.77711505      -3.10856579      -2.20353345
H       -0.40763660      -4.27425316      -2.23639790
H       -2.34219040      -3.28610435      -1.04751769
H       -2.06723433      -1.12127877       0.17287259
21
Properties=species:S:1:pos:R:3 charge=-1 charge_a=0 charge_b=-1 selection_a=1-7 selection_b=8-21 scaling=1.1 benchmark_Eint=-11.092 benchmark_unit=kcal/mol group=NH-Oa pbc="F F F"
N       -0.05829024       3.59772493       2.15449981
H       -0.46454315       2.68861978       1.91235428
H        0.84970833       3.34658914       2.52949593
C        0.16443144       4.30539595       0.89225040
H        0.69432769       5.24543645       1.07208527
H        0.72974025       3.71932824       0.15882827
H       -0.79972290       4.55934403       0.44693797
O       -0.91591252       0.75828806       0.95162672
C        0.12032328       0.33451420       0.38285575
O        1.25609585       0.85187649       0.34946521
C       -0.03771798      -0.99944283      -0.37237899
C        1.04341346      -1.56541357      -1.04501348
C        0.90748178      -2.76816546      -1.72860572
C       -0.31932806      -3.42509107      -1.74847760
C       -1.40508116      -2.86785739      -1.07963544
C       -1.26194613      -1.66454739      -0.39817291
H        1.98338222      -1.03320079      -1.01233033
H        1.75659826      -3.19630814      -2.24720288
H       -0.42815339      -4.36199552      -2.28006733
H       -2.36270719      -3.37384671      -1.09118713
H       -2.08775112      -1.20902112       0.12920315
21
Properties=species:S:1:pos:R:3 charge=-1 charge_a=0 charge_b=-1 selection_a=1-7 selection_b=8-21 scaling=1.25 benchmark_Eint=-9.581 benchmark_unit=kcal/mol group=NH-Oa pbc="F F F"
N       -0.05829024       3.59772493       2.15449981
H       -0.46454315       2.68861978       1.91235428
H        0.84970833       3.34658914       2.52949593
C        0.16443144       4.30539595       0.89225040
H        0.69432769       5.24543645       1.07208527
H        0.72974025       3.71932824       0.15882827
H       -0.79972290       4.55934403       0.44693797
O       -0.97746288       0.49506101       0.82061841
C        0.05877291       0.07128715       0.25184745
O        1.19454548       0.58864943       0.21845691
C       -0.09926835      -1.26266989      -0.50338729
C        0.98186310      -1.82864063      -1.17602179
C        0.84593142      -3.03139251      -1.85961402
C       -0.38087843      -3.68831812      -1.87948591
C       -1.46663153      -3.13108444      -1.21064374
C       -1.32349650      -1.92777445      -0.52918121
H        1.92183185      -1.29642785      -1.14333863
H        1.69504789      -3.45953520      -2.37821119
H       -0.48970376      -4.62522257      -2.41107564
H       -2.42425756      -3.63707376      -1.22219543
H       -2.14930148      -1.47224817      -0.00180515
21
Properties=species:S:1:pos:R:3 charge=-1 charge_a=0 charge_b=-1 selection_a=1-7 selection_b=8-21 scaling=1.5 benchmark_Eint=-7.042 benchmark_unit=kcal/mol group=NH-Oa pbc="F F F"
N       -0.05829024       3.59772493       2.15449981
H       -0.46454315       2.68861978       1.91235428
H        0.84970833       3.34658914       2.52949593
C        0.16443144       4.30539595       0.89225040
H        0.69432769       5.24543645       1.07208527
H        0.72974025       3.71932824       0.15882827
H       -0.79972290       4.55934403       0.44693797
O       -1.08004683       0.05634926       0.60227124
C       -0.04381104      -0.36742460       0.03350027
O        1.09196154       0.14993768       0.00010973
C       -0.20185230      -1.70138164      -0.72173446
C        0.87927915      -2.26735238      -1.39436896
C        0.74334747      -3.47010427      -2.07796119
C       -0.48346238      -4.12702988      -2.09783308
C       -1.56921548      -3.56979619      -1.42899092
C       -1.42608045      -2.36648620      -0.74752839
H        1.81924790      -1.73513960      -1.36168580
H        1.59246394      -3.89824695      -2.59655836
H       -0.59228770      -5.06393432      -2.62942281
H       -2.52684150      -4.07578551      -1.44054261
H       -2.25188543      -1.91095992      -0.22015232
21
Properties=species:S:1:pos:R:3 charge=-1 charge_a=0 charge_b=-1 selection_a=1-7 selection_b=8-21 scaling=2.0 benchmark_Eint=-3.951 benchmark_unit=kcal/mol group=NH-Oa pbc="F F F"
N       -0.05829024       3.59772493       2.15449981
H       -0.46454315       2.68861978       1.91235428
H        0.84970833       3.34658914       2.52949593
C        0.16443144       4.30539595       0.89225040
H        0.69432769       5.24543645       1.07208527
H        0.72974025       3.71932824       0.15882827
H       -0.79972290       4.55934403       0.44693797
O       -1.28521472      -0.82107425       0.16557689
C       -0.24897893      -1.24484811      -0.40319407
O        0.88679365      -0.72748583      -0.43658462
C       -0.40702019      -2.57880515      -1.15842881
C        0.67411126      -3.14477589      -1.83106331
C        0.53817958      -4.34752778      -2.51465554
C       -0.68863027      -5.00445339      -2.53452743
C       -1.77438337      -4.44721970      -1.86568526
C       -1.63124834      -3.24390971      -1.18422274
H        1.61408001      -2.61256311      -1.79838015
H        1.38729605      -4.77567046      -3.03325271
H       -0.79745559      -5.94135783      -3.06611716
H       -2.73200940      -4.95320902      -1.87723696
H       -2.45705332      -2.78838343      -0.65684667
11
Properties=species:S:1:pos:R:3 charge=-1 charge_a=0 charge_b=-1 selection_a=1-7 selection_b=8-11 scaling=0.8 benchmark_Eint=-6.142 benchmark_unit=kcal/mol group=NH-Oa pbc="F F F"
N       -0.85426618       0.80318726       2.11985025
H       -0.99121048       0.25824954       1.26575417
H       -0.09539936       0.32062417       2.58717866
C       -0.36801293       2.12162677       1.71075716
H       -0.10918550       2.71893376       2.58957158
H        0.50179003       2.08165304       1.04535092
H       -1.16453629       2.65074431       1.18432210
N        0.28127141      -0.55464187      -0.58363961
O       -0.91994433      -0.41938850      -0.21647154
O        0.53886341      -1.10227081      -1.67597788
O        1.20687589      -0.13709516       0.15372113
11
Properties=species:S:1:pos:R:3 charge=-1 charge_a=0 charge_b=-1 selection_a=1-7 selection_b=8-11 scaling=0.85 benchmark_Eint=-8.296 benchmark_unit=kcal/mol group=NH-Oa pbc="F F F"
N       -0.85426618       0.80318726       2.11985025
H       -0.99121048       0.25824954       1.26575417
H       -0.09539936       0.32062417       2.58717866
C       -0.36801293       2.12162677       1.71075716
H       -0.10918550       2.71893376       2.58957158
H        0.50179003       2.08165304       1.04535092
H       -1.16453629       2.65074431       1.18432210
N        0.28572555      -0.59699425      -0.67627872
O       -0.91549020      -0.46174088      -0.30911065
O        0.54331754      -1.14462319      -1.76861698
O        1.21133002      -0.17944754       0.06108202
11
Properties=species:S:1:pos:R:3 charge=-1 charge_a=0 charge_b=-1 selection_a=1-7 selection_b=8-11 scaling=0.9 benchmark_Eint=-9.509 benchmark_unit=kcal/mol group=NH-Oa pbc="F F F"
N       -0.85426618       0.80318726       2.11985025
H       -0.99121048       0.25824954       1.26575417
H       -0.09539936       0.32062417       2.58717866
C       -0.36801293       2.12162677       1.71075716
H       -0.10918550       2.71893376       2.58957158
H        0.50179003       2.08165304       1.04535092
H       -1.16453629       2.65074431       1.18432210
N        0.29017968      -0.63934663      -0.76891782
O       -0.91103607      -0.50409326      -0.40174975
O        0.54777168      -1.18697557      -1.86125609
O        1.21578415      -0.22179992      -0.03155708
11
Properties=species:S:1:pos:R:3 charge=-1 charge_a=0 charge_b=-1 selection_a=1-7 selection_b=8-11 scaling=0.95 benchmark_Eint=-10.079 benchmark_unit=kcal/mol group=NH-Oa pbc="F F F"
N       -0.85426618       0.80318726       2.11985025
H       -0.99121048       0.25824954       1.26575417
H       -0.09539936       0.32062417       2.58717866
C       -0.36801293       2.12162677       1.71075716
H       -0.10918550       2.71893376       2.58957158
H        0.50179003       2.08165304       1.04535092
H       -1.16453629       2.65074431       1.18432210
N        0.29463381      -0.68169901      -0.86155693
O       -0.90658193      -0.54644563      -0.49438886
O        0.55222581      -1.22932795      -1.95389520
O        1.22023829      -0.26415230      -0.12419619
11
Properties=species:S:1:pos:R:3 charge=-1 charge_a=0 charge_b=-1 selection_a=1-7 selection_b=8-11 scaling=1.0 benchmark_Eint=-10.222 benchmark_unit=kcal/mol group=NH-Oa pbc="F F F"
N       -0.85426618       0.80318726       2.11985025
H       -0.99121048       0.25824954       1.26575417
H       -0.09539936       0.32062417       2.58717866
C       -0.36801293       2.12162677       1.71075716
H       -0.10918550       2.71893376       2.58957158
H        0.50179003       2.08165304       1.04535092
H       -1.16453629       2.65074431       1.18432210
N        0.29908795      -0.72405138      -0.95419604
O       -0.90212780      -0.58879801      -0.58702796
O        0.55667995      -1.27168032      -2.04653431
O        1.22469242      -0.30650468      -0.21683530
11
Properties=species:S:1:pos:R:3 charge=-1 charge_a=0 charge_b=-1 selection_a=1-7 selection_b=8-11 scaling=1.05 benchmark_Eint=-10.084 benchmark_unit=kcal/mol group=NH-Oa pbc="F F F"
N       -0.85426618       0.80318726       2.11985025
H       -0.99121048       0.25824954       1.26575417
H       -0.09539936       0.32062417       2.58717866
C       -0.36801293       2.12162677       1.71075716
H       -0.10918550       2.71893376       2.58957158
H        0.50179003       2.08165304       1.04535092
H       -1.16453629       2.65074431       1.18432210
N        0.30354208      -0.76640376      -1.04683514
O       -0.89767367      -0.63115039      -0.67966707
O        0.56113408      -1.31403270      -2.13917341
O        1.22914656      -0.34885705      -0.30947441
11
Properties=species:S:1:pos:R:3 charge=-1 charge_a=0 charge_b=-1 selection_a=1-7 selection_b=8-11 scaling=1.1 benchmark_Eint=-9.771 benchmark_unit=kcal/mol group=NH-Oa pbc="F F F"
N       -0.85426618       0.80318726       2.11985025
H       -0.99121048       0.25824954       1.26575417
H       -0.09539936       0.32062417       2.58717866
C       -0.36801293       2.12162677       1.71075716
H       -0.10918550       2.71893376       2.58957158
H        0.50179003       2.08165304       1.04535092
H       -1.16453629       2.65074431       1.18432210
N        0.30799622      -0.80875614      -1.13947425
O       -0.89321953      -0.67350277      -0.77230618
O        0.56558822      -1.35638508      -2.23181252
O        1.23360069      -0.39120943      -0.40211351
11
Properties=species:S:1:pos:R:3 charge=-1 charge_a=0 charge_b=-1 selection_a=1-7 selection_b=8-11 scaling=1.25 benchmark_Eint=-8.389 benchmark_unit=kcal/mol group=NH-Oa pbc="F F F"
N       -0.85426618       0.80318726       2.11985025
H       -0.99121048       0.25824954       1.26575417
H       -0.09539936       0.32062417       2.58717866
C       -0.36801293       2.12162677       1.71075716
H       -0.10918550       2.71893376       2.58957158
H        0.50179003       2.08165304       1.04535092
H       -1.16453629       2.65074431       1.18432210
N        0.32135862      -0.93581327      -1.41739157
O       -0.87985713      -0.80055990      -1.05022350
O        0.57895062      -1.48344221      -2.50972984
O        1.24696309      -0.51826657      -0.68003083
11
Properties=species:S:1:pos:R:3 charge=-1 charge_a=0 charge_b=-1 selection_a=1-7 selection_b=8-11 scaling=1.5 benchmark_Eint=-6.114 benchmark_unit=kcal/mol group=NH-Oa pbc="F F F"
N       -0.85426618       0.80318726       2.11985025
H       -0.99121048       0.25824954       1.26575417
H       -0.09539936       0.32062417       2.58717866
C       -0.36801293       2.12162677       1.71075716
H       -0.10918550       2.71893376       2.58957158
H        0.50179003       2.08165304       1.04535092
H       -1.16453629       2.65074431       1.18432210
N        0.34362929      -1.14757516      -1.88058710
O       -0.85758646      -1.01232179      -1.51341903
O        0.60122129      -1.69520410      -2.97292537
O        1.26923376      -0.73002845      -1.14322637
11
Properties=species:S:1:pos:R:3 charge=-1 charge_a=0 charge_b=-1 selection_a=1-7 selection_b=8-11 scaling=2.0 benchmark_Eint=-3.418 benchmark_unit=kcal/mol group=NH-Oa pbc="F F F"
N       -0.85426618       0.80318726       2.11985025
H       -0.99121048       0.25824954       1.26575417
H       -0.09539936       0.32062417       2.58717866
C       -0.36801293       2.12162677       1.71075716
H       -0.10918550       2.71893376       2.58957158
H        0.50179003       2.08165304       1.04535092
H       -1.16453629       2.65074431       1.18432210
N        0.38817063      -1.57109894      -2.80697817
O       -0.81304512      -1.43584557      -2.43981010
O        0.64576263      -2.11872788      -3.89931644
O        1.31377510      -1.15355223      -2.06961743
10
Properties=species:S:1:pos:R:3 charge=-1 charge_a=0 charge_b=-1 selection_a=1-7 selection_b=8-10 scaling=0.8 benchmark_Eint=-7.106 benchmark_unit=kcal/mol group=NH-Oa pbc="F F F"
N       -1.15060945       0.94428817       1.18186446
H       -1.06100233       0.46663334       0.27814717
H       -0.95927036       0.19561860       1.83868963
C       -0.04564849       1.89892751       1.25990590
H       -0.01335482       2.36708204       2.24821565
H        0.93677684       1.45434276       1.05643576
H       -0.20317860       2.69542874       0.53000749
N        0.53585211      -0.91835343      -0.80186629
O       -0.44243713      -0.17099491      -1.07403616
O        0.65213341      -1.27033725       0.39317161
10
Properties=species:S:1:pos:R:3 charge=-1 charge_a=0 charge_b=-1 selection_a=1-7 selection_b=8-10 scaling=0.85 benchmark_Eint=-9.292 benchmark_unit=kcal/mol group=NH-Oa pbc="F F F"
N       -1.15060945       0.94428817       1.18186446
H       -1.06100233       0.46663334       0.27814717
H       -0.95927036       0.19561860       1.83868963
C       -0.04564849       1.89892751       1.25990590
H       -0.01335482       2.36708204       2.24821565
H        0.93677684       1.45434276       1.05643576
H       -0.20317860       2.69542874       0.53000749
N        0.57451244      -0.95820520      -0.88637775
O       -0.40377680      -0.21084667      -1.15854762
O        0.69079373      -1.31018902       0.30866015
10
Properties=species:S:1:pos:R:3 charge=-1 charge_a=0 charge_b=-1 selection_a=1-7 selection_b=8-10 scaling=0.9 benchmark_Eint=-10.549 benchmark_unit=kcal/mol group=NH-Oa pbc="F F F"
N       -1.15060945       0.94428817       1.18186446
H       -1.06100233       0.46663334       0.27814717
H       -0.95927036       0.19561860       1.83868963
C       -0.04564849       1.89892751       1.25990590
H       -0.01335482       2.36708204       2.24821565
H        0.93677684       1.45434276       1.05643576
H       -0.20317860       2.69542874       0.53000749
N        0.61317276      -0.99805696      -0.97088920
O       -0.36511648      -0.25069844      -1.24305908
O        0.72945406      -1.35004078       0.22414870
10
Properties=species:S:1:pos:R:3 charge=-1 charge_a=0 charge_b=-1 selection_a=1-7 selection_b=8-10 scaling=0.95 benchmark_Eint=-11.168 benchmark_unit=kcal/mol group=NH-Oa pbc="F F F"
N       -1.15060945       0.94428817       1.18186446
H       -1.06100233       0.46663334       0.27814717
H       -0.95927036       0.19561860       1.83868963
C       -0.04564849       1.89892751       1.25990590
H       -0.01335482       2.36708204       2.24821565
H        0.93677684       1.45434276       1.05643576
H       -0.20317860       2.69542874       0.53000749
N        0.65183309      -1.03790873      -1.05540066
O       -0.32645615      -0.29055020      -1.32757054
O        0.76811438      -1.38989255       0.13963724
10
Properties=species:S:1:pos:R:3 charge=-1 charge_a=0 charge_b=-1 selection_a=1-7 selection_b=8-10 scaling=1.0 benchmark_Eint=-11.355 benchmark_unit=kcal/mol group=NH-Oa pbc="F F F"
N       -1.15060945       0.94428817       1.18186446
H       -1.06100233       0.46663334       0.27814717
H       -0.95927036       0.19561860       1.83868963
C       -0.04564849       1.89892751       1.25990590
H       -0.01335482       2.36708204       2.24821565
H        0.93677684       1.45434276       1.05643576
H       -0.20317860       2.69542874       0.53000749
N        0.69049341      -1.07776049      -1.13991212
O       -0.28779583      -0.33040197      -1.41208200
O        0.80677471      -1.42974431       0.05512578
10
Properties=species:S:1:pos:R:3 charge=-1 charge_a=0 charge_b=-1 selection_a=1-7 selection_b=8-10 scaling=1.05 benchmark_Eint=-11.257 benchmark_unit=kcal/mol group=NH-Oa pbc="F F F"
N       -1.15060945       0.94428817       1.18186446
H       -1.06100233       0.46663334       0.27814717
H       -0.95927036       0.19561860       1.83868963
C       -0.04564849       1.89892751       1.25990590
H       -0.01335482       2.36708204       2.24821565
H        0.93677684       1.45434276       1.05643576
H       -0.20317860       2.69542874       0.53000749
N        0.72915374      -1.11761226      -1.22442358
O       -0.24913550      -0.37025373      -1.49659346
O        0.84543503      -1.46959608      -0.02938568
10
Properties=species:S:1:pos:R:3 charge=-1 charge_a=0 charge_b=-1 selection_a=1-7 selection_b=8-10 scaling=1.1 benchmark_Eint=-10.974 benchmark_unit=kcal/mol group=NH-Oa pbc="F F F"
N       -1.15060945       0.94428817       1.18186446
H       -1.06100233       0.46663334       0.27814717
H       -0.95927036       0.19561860       1.83868963
C       -0.04564849       1.89892751       1.25990590
H       -0.01335482       2.36708204       2.24821565
H        0.93677684       1.45434276       1.05643576
H       -0.20317860       2.69542874       0.53000749
N        0.76781406      -1.15746402      -1.30893504
O       -0.21047518      -0.41010550      -1.58110491
O        0.88409536      -1.50944784      -0.11389714
10
Properties=species:S:1:pos:R:3 charge=-1 charge_a=0 charge_b=-1 selection_a=1-7 selection_b=8-10 scaling=1.25 benchmark_Eint=-9.62 benchmark_unit=kcal/mol group=NH-Oa pbc="F F F"
N       -1.15060945       0.94428817       1.18186446
H       -1.06100233       0.46663334       0.27814717
H       -0.95927036       0.19561860       1.83868963
C       -0.04564849       1.89892751       1.25990590
H       -0.01335482       2.36708204       2.24821565
H        0.93677684       1.45434276       1.05643576
H       -0.20317860       2.69542874       0.53000749
N        0.88379504      -1.27701932      -1.56246942
O       -0.09449420      -0.52966079      -1.83463929
O        1.00007633      -1.62900314      -0.36743151
10
Properties=species:S:1:pos:R:3 charge=-1 charge_a=0 charge_b=-1 selection_a=1-7 selection_b=8-10 scaling=1.5 benchmark_Eint=-7.226 benchmark_unit=kcal/mol group=NH-Oa pbc="F F F"
N       -1.15060945       0.94428817       1.18186446
H       -1.06100233       0.46663334       0.27814717
H       -0.95927036       0.19561860       1.83868963
C       -0.04564849       1.89892751       1.25990590
H       -0.01335482       2.36708204       2.24821565
H        0.93677684       1.45434276       1.05643576
H       -0.20317860       2.69542874       0.53000749
N        1.07709666      -1.47627814      -1.98502671
O        0.09880742      -0.72891962      -2.25719658
O        1.19337796      -1.82826197      -0.78998881
10
Properties=species:S:1:pos:R:3 charge=-1 charge_a=0 charge_b=-1 selection_a=1-7 selection_b=8-10 scaling=2.0 benchmark_Eint=-4.126 benchmark_unit=kcal/mol group=NH-Oa pbc="F F F"
N       -1.15060945       0.94428817       1.18186446
H       -1.06100233       0.46663334       0.27814717
H       -0.95927036       0.19561860       1.83868963
C       -0.04564849       1.89892751       1.25990590
H       -0.01335482       2.36708204       2.24821565
H        0.93677684       1.45434276       1.05643576
H       -0.20317860       2.69542874       0.53000749
N        1.46369991      -1.87479580      -2.83014129
O        0.48541067      -1.12743727      -3.10231117
O        1.57998120      -2.22677962      -1.63510339
12
Properties=species:S:1:pos:R:3 charge=-1 charge_a=0 charge_b=-1 selection_a=1-10 selection_b=11-12 scaling=0.8 benchmark_Eint=-15.566 benchmark_unit=kcal/mol group=NH-Na pbc="F F F"
H       -1.77109328      -0.62872173       1.03185946
H       -0.15095585      -2.16405865       2.58504770
H        2.37161221      -1.73144345       1.66309495
H        2.10860864       0.03658733      -0.38614294
N        0.04216333      -0.07399122       0.08068654
C       -0.70262717      -0.74771714       0.99894242
C        0.14267108      -1.51886530       1.77392330
C        1.46019203      -1.29292003       1.29238906
C        1.35403416      -0.39502918       0.24724917
H       -0.33551599       0.58855081      -0.64180829
C       -1.25128723       2.19503519      -2.39386044
N       -0.83142320       1.45854080      -1.59048979
12
Properties=species:S:1:pos:R:3 charge=-1 charge_a=0 charge_b=-1 selection_a=1-10 selection_b=11-12 scaling=0.85 benchmark_Eint=-19.231 benchmark_unit=kcal/mol group=NH-Na pbc="F F F"
H       -1.77109328      -0.62872173       1.03185946
H       -0.15095585      -2.16405865       2.58504770
H        2.37161221      -1.73144345       1.66309495
H        2.10860864       0.03658733      -0.38614294
N        0.04216333      -0.07399122       0.08068654
C       -0.70262717      -0.74771714       0.99894242
C        0.14267108      -1.51886530       1.77392330
C        1.46019203      -1.29292003       1.29238906
C        1.35403416      -0.39502918       0.24724917
H       -0.33551599       0.58855081      -0.64180829
C       -1.28228143       2.24940956      -2.45315304
N       -0.86241740       1.51291517      -1.64978238
12
Properties=species:S:1:pos:R:3 charge=-1 charge_a=0 charge_b=-1 selection_a=1-10 selection_b=11-12 scaling=0.9 benchmark_Eint=-21.392 benchmark_unit=kcal/mol group=NH-Na pbc="F F F"
H       -1.77109328      -0.62872173       1.03185946
H       -0.15095585      -2.16405865       2.58504770
H        2.37161221      -1.73144345       1.66309495
H        2.10860864       0.03658733      -0.38614294
N        0.04216333      -0.07399122       0.08068654
C       -0.70262717      -0.74771714       0.99894242
C        0.14267108      -1.51886530       1.77392330
C        1.46019203      -1.29292003       1.29238906
C        1.35403416      -0.39502918       0.24724917
H       -0.33551599       0.58855081      -0.64180829
C       -1.31327563       2.30378394      -2.51244563
N       -0.89341161       1.56728955      -1.70907498
12
Properties=species:S:1:pos:R:3 charge=-1 charge_a=0 charge_b=-1 selection_a=1-10 selection_b=11-12 scaling=0.95 benchmark_Eint=-22.489 benchmark_unit=kcal/mol group=NH-Na pbc="F F F"
H       -1.77109328      -0.62872173       1.03185946
H       -0.15095585      -2.16405865       2.58504770
H        2.37161221      -1.73144345       1.66309495
H        2.10860864       0.03658733      -0.38614294
N        0.04216333      -0.07399122       0.08068654
C       -0.70262717      -0.74771714       0.99894242
C        0.14267108      -1.51886530       1.77392330
C        1.46019203      -1.29292003       1.29238906
C        1.35403416      -0.39502918       0.24724917
H       -0.33551599       0.58855081      -0.64180829
C       -1.34426983       2.35815831      -2.57173822
N       -0.92440581       1.62166392      -1.76836757
12
Properties=species:S:1:pos:R:3 charge=-1 charge_a=0 charge_b=-1 selection_a=1-10 selection_b=11-12 scaling=1.0 benchmark_Eint=-22.845 benchmark_unit=kcal/mol group=NH-Na pbc="F F F"
H       -1.77109328      -0.62872173       1.03185946
H       -0.15095585      -2.16405865       2.58504770
H        2.37161221      -1.73144345       1.66309495
H        2.10860864       0.03658733      -0.38614294
N        0.04216333      -0.07399122       0.08068654
C       -0.70262717      -0.74771714       0.99894242
C        0.14267108      -1.51886530       1.77392330
C        1.46019203      -1.29292003       1.29238906
C        1.35403416      -0.39502918       0.24724917
H       -0.33551599       0.58855081      -0.64180829
C       -1.37526404       2.41253269      -2.63103082
N       -0.95540001       1.67603829      -1.82766016
12
Properties=species:S:1:pos:R:3 charge=-1 charge_a=0 charge_b=-1 selection_a=1-10 selection_b=11-12 scaling=1.05 benchmark_Eint=-22.687 benchmark_unit=kcal/mol group=NH-Na pbc="F F F"
H       -1.77109328      -0.62872173       1.03185946
H       -0.15095585      -2.16405865       2.58504770
H        2.37161221      -1.73144345       1.66309495
H        2.10860864       0.03658733      -0.38614294
N        0.04216333      -0.07399122       0.08068654
C       -0.70262717      -0.74771714       0.99894242
C        0.14267108      -1.51886530       1.77392330
C        1.46019203      -1.29292003       1.29238906
C        1.35403416      -0.39502918       0.24724917
H       -0.33551599       0.58855081      -0.64180829
C       -1.40625824       2.46690706      -2.69032341
N       -0.98639421       1.73041267      -1.88695276
12
Properties=species:S:1:pos:R:3 charge=-1 charge_a=0 charge_b=-1 selection_a=1-10 selection_b=11-12 scaling=1.1 benchmark_Eint=-22.182 benchmark_unit=kcal/mol group=NH-Na pbc="F F F"
H       -1.77109328      -0.62872173       1.03185946
H       -0.15095585      -2.16405865       2.58504770
H        2.37161221      -1.73144345       1.66309495
H        2.10860864       0.03658733      -0.38614294
N        0.04216333      -0.07399122       0.08068654
C       -0.70262717      -0.74771714       0.99894242
C        0.14267108      -1.51886530       1.77392330
C        1.46019203      -1.29292003       1.29238906
C        1.35403416      -0.39502918       0.24724917
H       -0.33551599       0.58855081      -0.64180829
C       -1.43725244       2.52128144      -2.74961601
N       -1.01738841       1.78478704      -1.94624535
12
Properties=species:S:1:pos:R:3 charge=-1 charge_a=0 charge_b=-1 selection_a=1-10 selection_b=11-12 scaling=1.25 benchmark_Eint=-19.64 benchmark_unit=kcal/mol group=NH-Na pbc="F F F"
H       -1.77109328      -0.62872173       1.03185946
H       -0.15095585      -2.16405865       2.58504770
H        2.37161221      -1.73144345       1.66309495
H        2.10860864       0.03658733      -0.38614294
N        0.04216333      -0.07399122       0.08068654
C       -0.70262717      -0.74771714       0.99894242
C        0.14267108      -1.51886530       1.77392330
C        1.46019203      -1.29292003       1.29238906
C        1.35403416      -0.39502918       0.24724917
H       -0.33551599       0.58855081      -0.64180829
C       -1.53023504       2.68440456      -2.92749379
N       -1.11037101       1.94791017      -2.12412313
12
Properties=species:S:1:pos:R:3 charge=-1 charge_a=0 charge_b=-1 selection_a=1-10 selection_b=11-12 scaling=1.5 benchmark_Eint=-14.939 benchmark_unit=kcal/mol group=NH-Na pbc="F F F"
H       -1.77109328      -0.62872173       1.03185946
H       -0.15095585      -2.16405865       2.58504770
H        2.37161221      -1.73144345       1.66309495
H        2.10860864       0.03658733      -0.38614294
N        0.04216333      -0.07399122       0.08068654
C       -0.70262717      -0.74771714       0.99894242
C        0.14267108      -1.51886530       1.77392330
C        1.46019203      -1.29292003       1.29238906
C        1.35403416      -0.39502918       0.24724917
H       -0.33551599       0.58855081      -0.64180829
C       -1.68520604       2.95627643      -3.22395675
N       -1.26534201       2.21978204      -2.42058610
12
Properties=species:S:1:pos:R:3 charge=-1 charge_a=0 charge_b=-1 selection_a=1-10 selection_b=11-12 scaling=2.0 benchmark_Eint=-8.714 benchmark_unit=kcal/mol group=NH-Na pbc="F F F"
H       -1.77109328      -0.62872173       1.03185946
H       -0.15095585      -2.16405865       2.58504770
H        2.37161221      -1.73144345       1.66309495
H        2.10860864       0.03658733      -0.38614294
N        0.04216333      -0.07399122       0.08068654
C       -0.70262717      -0.74771714       0.99894242
C        0.14267108      -1.51886530       1.77392330
C        1.46019203      -1.29292003       1.29238906
C        1.35403416      -0.39502918       0.24724917
H       -0.33551599       0.58855081      -0.64180829
C       -1.99514805       3.50002017      -3.81688269
N       -1.57528402       2.76352578      -3.01351203
6
Properties=species:S:1:pos:R:3 charge=-1 charge_a=0 charge_b=-1 selection_a=1-4 selection_b=5-6 scaling=0.8 benchmark_Eint=-4.316 benchmark_unit=kcal/mol group=NH-Na pbc="F F F"
N       -1.14258220       1.71818474      -0.69553166
H       -0.58712406       0.87083946      -0.50438951
H       -0.64273189       2.47180551      -0.23602411
H       -1.99853017       1.59921696      -0.16436167
C        0.84139358      -1.26090260       0.56737203
N        0.26043074      -0.40228768       0.02750962
6
Properties=species:S:1:pos:R:3 charge=-1 charge_a=0 charge_b=-1 selection_a=1-4 selection_b=5-6 scaling=0.85 benchmark_Eint=-6.676 benchmark_unit=kcal/mol group=NH-Na pbc="F F F"
N       -1.14258220       1.71818474      -0.69553166
H       -0.58712406       0.87083946      -0.50438951
H       -0.64273189       2.47180551      -0.23602411
H       -1.99853017       1.59921696      -0.16436167
C        0.89436576      -1.34047305       0.60061572
N        0.31340292      -0.48185813       0.06075331
6
Properties=species:S:1:pos:R:3 charge=-1 charge_a=0 charge_b=-1 selection_a=1-4 selection_b=5-6 scaling=0.9 benchmark_Eint=-8.055 benchmark_unit=kcal/mol group=NH-Na pbc="F F F"
N       -1.14258220       1.71818474      -0.69553166
H       -0.58712406       0.87083946      -0.50438951
H       -0.64273189       2.47180551      -0.23602411
H       -1.99853017       1.59921696      -0.16436167
C        0.94733793      -1.42004349       0.63385942
N        0.36637509      -0.56142857       0.09399700
6
Properties=species:S:1:pos:R:3 charge=-1 charge_a=0 charge_b=-1 selection_a=1-4 selection_b=5-6 scaling=0.95 benchmark_Eint=-8.759 benchmark_unit=kcal/mol group=NH-Na pbc="F F F"
N       -1.14258220       1.71818474      -0.69553166
H       -0.58712406       0.87083946      -0.50438951
H       -0.64273189       2.47180551      -0.23602411
H       -1.99853017       1.59921696      -0.16436167
C        1.00031011      -1.49961394       0.66710311
N        0.41934727      -0.64099902       0.12724070
6
Properties=species:S:1:pos:R:3 charge=-1 charge_a=0 charge_b=-1 selection_a=1-4 selection_b=5-6 scaling=1.0 benchmark_Eint=-9.007 benchmark_unit=kcal/mol group=NH-Na pbc="F F F"
N       -1.14258220       1.71818474      -0.69553166
H       -0.58712406       0.87083946      -0.50438951
H       -0.64273189       2.47180551      -0.23602411
H       -1.99853017       1.59921696      -0.16436167
C        1.05328228      -1.57918439       0.70034681
N        0.47231944      -0.72056947       0.16048440
6
Properties=species:S:1:pos:R:3 charge=-1 charge_a=0 charge_b=-1 selection_a=1-4 selection_b=5-6 scaling=1.05 benchmark_Eint=-8.954 benchmark_unit=kcal/mol group=NH-Na pbc="F F F"
N       -1.14258220       1.71818474      -0.69553166
H       -0.58712406       0.87083946      -0.50438951
H       -0.64273189       2.47180551      -0.23602411
H       -1.99853017       1.59921696      -0.16436167
C        1.10625446      -1.65875483       0.73359050
N        0.52529162      -0.80013991       0.19372809
6
Properties=species:S:1:pos:R:3 charge=-1 charge_a=0 charge_b=-1 selection_a=1-4 selection_b=5-6 scaling=1.1 benchmark_Eint=-8.706 benchmark_unit=kcal/mol group=NH-Na pbc="F F F"
N       -1.14258220       1.71818474      -0.69553166
H       -0.58712406       0.87083946      -0.50438951
H       -0.64273189       2.47180551      -0.23602411
H       -1.99853017       1.59921696      -0.16436167
C        1.15922663      -1.73832528       0.76683420
N        0.57826379      -0.87971036       0.22697179
6
Properties=species:S:1:pos:R:3 charge=-1 charge_a=0 charge_b=-1 selection_a=1-4 selection_b=5-6 scaling=1.25 benchmark_Eint=-7.459 benchmark_unit=kcal/mol group=NH-Na pbc="F F F"
N       -1.14258220       1.71818474      -0.69553166
H       -0.58712406       0.87083946      -0.50438951
H       -0.64273189       2.47180551      -0.23602411
H       -1.99853017       1.59921696      -0.16436167
C        1.31814316      -1.97703662       0.86656528
N        0.73718032      -1.11842170       0.32670287
6
Properties=species:S:1:pos:R:3 charge=-1 charge_a=0 charge_b=-1 selection_a=1-4 selection_b=5-6 scaling=1.5 benchmark_Eint=-5.328 benchmark_unit=kcal/mol group=NH-Na pbc="F F F"
N       -1.14258220       1.71818474      -0.69553166
H       -0.58712406       0.87083946      -0.50438951
H       -0.64273189       2.47180551      -0.23602411
H       -1.99853017       1.59921696      -0.16436167
C        1.58300403      -2.37488885       1.03278376
N        1.00204120      -1.51627393       0.49292135
6
Properties=species:S:1:pos:R:3 charge=-1 charge_a=0 charge_b=-1 selection_a=1-4 selection_b=5-6 scaling=2.0 benchmark_Eint=-2.861 benchmark_unit=kcal/mol group=NH-Na pbc="F F F"
N       -1.14258220       1.71818474      -0.69553166
H       -0.58712406       0.87083946      -0.50438951
H       -0.64273189       2.47180551      -0.23602411
H       -1.99853017       1.59921696      -0.16436167
C        2.11272579      -3.17059331       1.36522071
N        1.53176295      -2.31197840       0.82535830
16
Properties=species:S:1:pos:R:3 charge=-1 charge_a=0 charge_b=-1 selection_a=1-14 selection_b=15-16 scaling=0.8 benchmark_Eint=-11.977 benchmark_unit=kcal/mol group=NH-Na pbc="F F F"
H        0.46634280      -1.42428363      -0.00239027
H        3.45510026       1.64574151      -0.38783832
H        2.83510823      -0.74668820      -0.12000484
H       -0.71001755       2.67027625      -0.42817173
H       -1.82804783      -0.78880358       0.13680489
H        1.64836014       3.34492017      -0.53167631
H       -2.29295666       0.87156936      -0.02422508
C        2.41665621       1.34902331      -0.34185284
C        2.06171697       0.00747088      -0.19429413
C        0.73755552      -0.38600180      -0.13279944
C       -0.29879624       0.56692155      -0.22047262
C        0.06800600       1.91912820      -0.36193351
C        1.40111175       2.29614441      -0.42169098
N       -1.60135565       0.16566268      -0.20148660
C       -2.26545876      -3.20717270       1.02725900
N       -2.07332683      -2.12692431       0.62565381
16
Properties=species:S:1:pos:R:3 charge=-1 charge_a=0 charge_b=-1 selection_a=1-14 selection_b=15-16 scaling=0.85 benchmark_Eint=-15.299 benchmark_unit=kcal/mol group=NH-Na pbc="F F F"
H        0.46634280      -1.42428363      -0.00239027
H        3.45510026       1.64574151      -0.38783832
H        2.83510823      -0.74668820      -0.12000484
H       -0.71001755       2.67027625      -0.42817173
H       -1.82804783      -0.78880358       0.13680489
H        1.64836014       3.34492017      -0.53167631
H       -2.29295666       0.87156936      -0.02422508
C        2.41665621       1.34902331      -0.34185284
C        2.06171697       0.00747088      -0.19429413
C        0.73755552      -0.38600180      -0.13279944
C       -0.29879624       0.56692155      -0.22047262
C        0.06800600       1.91912820      -0.36193351
C        1.40111175       2.29614441      -0.42169098
N       -1.60135565       0.16566268      -0.20148660
C       -2.28078870      -3.29080525       1.05781206
N       -2.08865677      -2.21055686       0.65620686
16
Properties=species:S:1:pos:R:3 charge=-1 charge_a=0 charge_b=-1 selection_a=1-14 selection_b=15-16 scaling=0.9 benchmark_Eint=-17.267 benchmark_unit=kcal/mol group=NH-Na pbc="F F F"
H        0.46634280      -1.42428363      -0.00239027
H        3.45510026       1.64574151      -0.38783832
H        2.83510823      -0.74668820      -0.12000484
H       -0.71001755       2.67027625      -0.42817173
H       -1.82804783      -0.78880358       0.13680489
H        1.64836014       3.34492017      -0.53167631
H       -2.29295666       0.87156936      -0.02422508
C        2.41665621       1.34902331      -0.34185284
C        2.06171697       0.00747088      -0.19429413
C        0.73755552      -0.38600180      -0.13279944
C       -0.29879624       0.56692155      -0.22047262
C        0.06800600       1.91912820      -0.36193351
C        1.40111175       2.29614441      -0.42169098
N       -1.60135565       0.16566268      -0.20148660
C       -2.29611863      -3.37443779       1.08836512
N       -2.10398671      -2.29418940       0.68675992
16
Properties=species:S:1:pos:R:3 charge=-1 charge_a=0 charge_b=-1 selection_a=1-14 selection_b=15-16 scaling=0.95 benchmark_Eint=-18.283 benchmark_unit=kcal/mol group=NH-Na pbc="F F F"
H        0.46634280      -1.42428363      -0.00239027
H        3.45510026       1.64574151      -0.38783832
H        2.83510823      -0.74668820      -0.12000484
H       -0.71001755       2.67027625      -0.42817173
H       -1.82804783      -0.78880358       0.13680489
H        1.64836014       3.34492017      -0.53167631
H       -2.29295666       0.87156936      -0.02422508
C        2.41665621       1.34902331      -0.34185284
C        2.06171697       0.00747088      -0.19429413
C        0.73755552      -0.38600180      -0.13279944
C       -0.29879624       0.56692155      -0.22047262
C        0.06800600       1.91912820      -0.36193351
C        1.40111175       2.29614441      -0.42169098
N       -1.60135565       0.16566268      -0.20148660
C       -2.31144857      -3.45807034       1.11891818
N       -2.11931664      -2.37782195       0.71731298
16
Properties=species:S:1:pos:R:3 charge=-1 charge_a=0 charge_b=-1 selection_a=1-14 selection_b=15-16 scaling=1.0 benchmark_Eint=-18.631 benchmark_unit=kcal/mol group=NH-Na pbc="F F F"
H        0.46634280      -1.42428363      -0.00239027
H        3.45510026       1.64574151      -0.38783832
H        2.83510823      -0.74668820      -0.12000484
H       -0.71001755       2.67027625      -0.42817173
H       -1.82804783      -0.78880358       0.13680489
H        1.64836014       3.34492017      -0.53167631
H       -2.29295666       0.87156936      -0.02422508
C        2.41665621       1.34902331      -0.34185284
C        2.06171697       0.00747088      -0.19429413
C        0.73755552      -0.38600180      -0.13279944
C       -0.29879624       0.56692155      -0.22047262
C        0.06800600       1.91912820      -0.36193351
C        1.40111175       2.29614441      -0.42169098
N       -1.60135565       0.16566268      -0.20148660
C       -2.32677851      -3.54170288       1.14947123
N       -2.13464658      -2.46145449       0.74786604
16
Properties=species:S:1:pos:R:3 charge=-1 charge_a=0 charge_b=-1 selection_a=1-14 selection_b=15-16 scaling=1.05 benchmark_Eint=-18.522 benchmark_unit=kcal/mol group=NH-Na pbc="F F F"
H        0.46634280      -1.42428363      -0.00239027
H        3.45510026       1.64574151      -0.38783832
H        2.83510823      -0.74668820      -0.12000484
H       -0.71001755       2.67027625      -0.42817173
H       -1.82804783      -0.78880358       0.13680489
H        1.64836014       3.34492017      -0.53167631
H       -2.29295666       0.87156936      -0.02422508
C        2.41665621       1.34902331      -0.34185284
C        2.06171697       0.00747088      -0.19429413
C        0.73755552      -0.38600180      -0.13279944
C       -0.29879624       0.56692155      -0.22047262
C        0.06800600       1.91912820      -0.36193351
C        1.40111175       2.29614441      -0.42169098
N       -1.60135565       0.16566268      -0.20148660
C       -2.34210845      -3.62533543       1.18002429
N       -2.14997652      -2.54508704       0.77841909
16
Properties=species:S:1:pos:R:3 charge=-1 charge_a=0 charge_b=-1 selection_a=1-14 selection_b=15-16 scaling=1.1 benchmark_Eint=-18.106 benchmark_unit=kcal/mol group=NH-Na pbc="F F F"
H        0.46634280      -1.42428363      -0.00239027
H        3.45510026       1.64574151      -0.38783832
H        2.83510823      -0.74668820      -0.12000484
H       -0.71001755       2.67027625      -0.42817173
H       -1.82804783      -0.78880358       0.13680489
H        1.64836014       3.34492017      -0.53167631
H       -2.29295666       0.87156936      -0.02422508
C        2.41665621       1.34902331      -0.34185284
C        2.06171697       0.00747088      -0.19429413
C        0.73755552      -0.38600180      -0.13279944
C       -0.29879624       0.56692155      -0.22047262
C        0.06800600       1.91912820      -0.36193351
C        1.40111175       2.29614441      -0.42169098
N       -1.60135565       0.16566268      -0.20148660
C       -2.35743839      -3.70896798       1.21057735
N       -2.16530646      -2.62871958       0.80897215
16
Properties=species:S:1:pos:R:3 charge=-1 charge_a=0 charge_b=-1 selection_a=1-14 selection_b=15-16 scaling=1.25 benchmark_Eint=-15.95 benchmark_unit=kcal/mol group=NH-Na pbc="F F F"
H        0.46634280      -1.42428363      -0.00239027
H        3.45510026       1.64574151      -0.38783832
H        2.83510823      -0.74668820      -0.12000484
H       -0.71001755       2.67027625      -0.42817173
H       -1.82804783      -0.78880358       0.13680489
H        1.64836014       3.34492017      -0.53167631
H       -2.29295666       0.87156936      -0.02422508
C        2.41665621       1.34902331      -0.34185284
C        2.06171697       0.00747088      -0.19429413
C        0.73755552      -0.38600180      -0.13279944
C       -0.29879624       0.56692155      -0.22047262
C        0.06800600       1.91912820      -0.36193351
C        1.40111175       2.29614441      -0.42169098
N       -1.60135565       0.16566268      -0.20148660
C       -2.40342820      -3.95986561       1.30223652
N       -2.21129627      -2.87961722       0.90063132
16
Properties=species:S:1:pos:R:3 charge=-1 charge_a=0 charge_b=-1 selection_a=1-14 selection_b=15-16 scaling=1.5 benchmark_Eint=-11.954 benchmark_unit=kcal/mol group=NH-Na pbc="F F F"
H        0.46634280      -1.42428363      -0.00239027
H        3.45510026       1.64574151      -0.38783832
H        2.83510823      -0.74668820      -0.12000484
H       -0.71001755       2.67027625      -0.42817173
H       -1.82804783      -0.78880358       0.13680489
H        1.64836014       3.34492017      -0.53167631
H       -2.29295666       0.87156936      -0.02422508
C        2.41665621       1.34902331      -0.34185284
C        2.06171697       0.00747088      -0.19429413
C        0.73755552      -0.38600180      -0.13279944
C       -0.29879624       0.56692155      -0.22047262
C        0.06800600       1.91912820      -0.36193351
C        1.40111175       2.29614441      -0.42169098
N       -1.60135565       0.16566268      -0.20148660
C       -2.48007789      -4.37802834       1.45500180
N       -2.28794596      -3.29777995       1.05339661
16
Properties=species:S:1:pos:R:3 charge=-1 charge_a=0 charge_b=-1 selection_a=1-14 selection_b=15-16 scaling=2.0 benchmark_Eint=-6.702 benchmark_unit=kcal/mol group=NH-Na pbc="F F F"
H        0.46634280      -1.42428363      -0.00239027
H        3.45510026       1.64574151      -0.38783832
H        2.83510823      -0.74668820      -0.12000484
H       -0.71001755       2.67027625      -0.42817173
H       -1.82804783      -0.78880358       0.13680489
H        1.64836014       3.34492017      -0.53167631
H       -2.29295666       0.87156936      -0.02422508
C        2.41665621       1.34902331      -0.34185284
C        2.06171697       0.00747088      -0.19429413
C        0.73755552      -0.38600180      -0.13279944
C       -0.29879624       0.56692155      -0.22047262
C        0.06800600       1.91912820      -0.36193351
C        1.40111175       2.29614441      -0.42169098
N       -1.60135565       0.16566268      -0.20148660
C       -2.63337727      -5.21435379       1.76053238
N       -2.44124534      -4.13410540       1.35892718
12
Properties=species:S:1:pos:R:3 charge=-1 charge_a=0 charge_b=-1 selection_a=1-10 selection_b=11-12 scaling=0.8 benchmark_Eint=-5.913 benchmark_unit=kcal/mol group=NH-Na pbc="F F F"
H        1.37918978       1.48276256       2.06456342
H        1.32548939       1.59596064       0.29504303
H        2.08309255       0.19856672       1.07149198
H       -0.02926433      -0.44818295       0.35609093
H       -2.05579701       0.45007386       1.04776778
H       -1.21296834       1.64027755       2.04970873
H       -1.12574972       1.74491633       0.28099598
C        1.25062545       0.89783720       1.14668172
N        0.00320420       0.16396626       1.18162022
C       -1.14569923       1.04345434       1.13294806
C       -0.05507964      -1.11701729      -2.23824800
N       -0.05853092      -1.06406299      -1.07051961
12
Properties=species:S:1:pos:R:3 charge=-1 charge_a=0 charge_b=-1 selection_a=1-10 selection_b=11-12 scaling=0.85 benchmark_Eint=-8.638 benchmark_unit=kcal/mol group=NH-Na pbc="F F F"
H        1.37918978       1.48276256       2.06456342
H        1.32548939       1.59596064       0.29504303
H        2.08309255       0.19856672       1.07149198
H       -0.02926433      -0.44818295       0.35609093
H       -2.05579701       0.45007386       1.04776778
H       -1.21296834       1.64027755       2.04970873
H       -1.12574972       1.74491633       0.28099598
C        1.25062545       0.89783720       1.14668172
N        0.00320420       0.16396626       1.18162022
C       -1.14569923       1.04345434       1.13294806
C       -0.05690880      -1.15550979      -2.32741116
N       -0.06036009      -1.10255550      -1.15968276
12
Properties=species:S:1:pos:R:3 charge=-1 charge_a=0 charge_b=-1 selection_a=1-10 selection_b=11-12 scaling=0.9 benchmark_Eint=-10.254 benchmark_unit=kcal/mol group=NH-Na pbc="F F F"
H        1.37918978       1.48276256       2.06456342
H        1.32548939       1.59596064       0.29504303
H        2.08309255       0.19856672       1.07149198
H       -0.02926433      -0.44818295       0.35609093
H       -2.05579701       0.45007386       1.04776778
H       -1.21296834       1.64027755       2.04970873
H       -1.12574972       1.74491633       0.28099598
C        1.25062545       0.89783720       1.14668172
N        0.00320420       0.16396626       1.18162022
C       -1.14569923       1.04345434       1.13294806
C       -0.05873796      -1.19400229      -2.41657432
N       -0.06218925      -1.14104800      -1.24884592
12
Properties=species:S:1:pos:R:3 charge=-1 charge_a=0 charge_b=-1 selection_a=1-10 selection_b=11-12 scaling=0.95 benchmark_Eint=-11.096 benchmark_unit=kcal/mol group=NH-Na pbc="F F F"
H        1.37918978       1.48276256       2.06456342
H        1.32548939       1.59596064       0.29504303
H        2.08309255       0.19856672       1.07149198
H       -0.02926433      -0.44818295       0.35609093
H       -2.05579701       0.45007386       1.04776778
H       -1.21296834       1.64027755       2.04970873
H       -1.12574972       1.74491633       0.28099598
C        1.25062545       0.89783720       1.14668172
N        0.00320420       0.16396626       1.18162022
C       -1.14569923       1.04345434       1.13294806
C       -0.06056712      -1.23249479      -2.50573748
N       -0.06401841      -1.17954050      -1.33800908
12
Properties=species:S:1:pos:R:3 charge=-1 charge_a=0 charge_b=-1 selection_a=1-10 selection_b=11-12 scaling=1.0 benchmark_Eint=-11.404 benchmark_unit=kcal/mol group=NH-Na pbc="F F F"
H        1.37918978       1.48276256       2.06456342
H        1.32548939       1.59596064       0.29504303
H        2.08309255       0.19856672       1.07149198
H       -0.02926433      -0.44818295       0.35609093
H       -2.05579701       0.45007386       1.04776778
H       -1.21296834       1.64027755       2.04970873
H       -1.12574972       1.74491633       0.28099598
C        1.25062545       0.89783720       1.14668172
N        0.00320420       0.16396626       1.18162022
C       -1.14569923       1.04345434       1.13294806
C       -0.06239628      -1.27098730      -2.59490064
N       -0.06584757      -1.21803300      -1.42717224
12
Properties=species:S:1:pos:R:3 charge=-1 charge_a=0 charge_b=-1 selection_a=1-10 selection_b=11-12 scaling=1.05 benchmark_Eint=-11.351 benchmark_unit=kcal/mol group=NH-Na pbc="F F F"
H        1.37918978       1.48276256       2.06456342
H        1.32548939       1.59596064       0.29504303
H        2.08309255       0.19856672       1.07149198
H       -0.02926433      -0.44818295       0.35609093
H       -2.05579701       0.45007386       1.04776778
H       -1.21296834       1.64027755       2.04970873
H       -1.12574972       1.74491633       0.28099598
C        1.25062545       0.89783720       1.14668172
N        0.00320420       0.16396626       1.18162022
C       -1.14569923       1.04345434       1.13294806
C       -0.06422545      -1.30947980      -2.68406380
N       -0.06767673      -1.25652551      -1.51633540
12
Properties=species:S:1:pos:R:3 charge=-1 charge_a=0 charge_b=-1 selection_a=1-10 selection_b=11-12 scaling=1.1 benchmark_Eint=-11.063 benchmark_unit=kcal/mol group=NH-Na pbc="F F F"
H        1.37918978       1.48276256       2.06456342
H        1.32548939       1.59596064       0.29504303
H        2.08309255       0.19856672       1.07149198
H       -0.02926433      -0.44818295       0.35609093
H       -2.05579701       0.45007386       1.04776778
H       -1.21296834       1.64027755       2.04970873
H       -1.12574972       1.74491633       0.28099598
C        1.25062545       0.89783720       1.14668172
N        0.00320420       0.16396626       1.18162022
C       -1.14569923       1.04345434       1.13294806
C       -0.06605461      -1.34797230      -2.77322695
N       -0.06950590      -1.29501801      -1.60549856
12
Properties=species:S:1:pos:R:3 charge=-1 charge_a=0 charge_b=-1 selection_a=1-10 selection_b=11-12 scaling=1.25 benchmark_Eint=-9.547 benchmark_unit=kcal/mol group=NH-Na pbc="F F F"
H        1.37918978       1.48276256       2.06456342
H        1.32548939       1.59596064       0.29504303
H        2.08309255       0.19856672       1.07149198
H       -0.02926433      -0.44818295       0.35609093
H       -2.05579701       0.45007386       1.04776778
H       -1.21296834       1.64027755       2.04970873
H       -1.12574972       1.74491633       0.28099598
C        1.25062545       0.89783720       1.14668172
N        0.00320420       0.16396626       1.18162022
C       -1.14569923       1.04345434       1.13294806
C       -0.07154209      -1.46344981      -3.04071643
N       -0.07499338      -1.41049552      -1.87298803
12
Properties=species:S:1:pos:R:3 charge=-1 charge_a=0 charge_b=-1 selection_a=1-10 selection_b=11-12 scaling=1.5 benchmark_Eint=-6.859 benchmark_unit=kcal/mol group=NH-Na pbc="F F F"
H        1.37918978       1.48276256       2.06456342
H        1.32548939       1.59596064       0.29504303
H        2.08309255       0.19856672       1.07149198
H       -0.02926433      -0.44818295       0.35609093
H       -2.05579701       0.45007386       1.04776778
H       -1.21296834       1.64027755       2.04970873
H       -1.12574972       1.74491633       0.28099598
C        1.25062545       0.89783720       1.14668172
N        0.00320420       0.16396626       1.18162022
C       -1.14569923       1.04345434       1.13294806
C       -0.08068790      -1.65591233      -3.48653222
N       -0.08413919      -1.60295803      -2.31880382
12
Properties=species:S:1:pos:R:3 charge=-1 charge_a=0 charge_b=-1 selection_a=1-10 selection_b=11-12 scaling=2.0 benchmark_Eint=-3.636 benchmark_unit=kcal/mol group=NH-Na pbc="F F F"
H        1.37918978       1.48276256       2.06456342
H        1.32548939       1.59596064       0.29504303
H        2.08309255       0.19856672       1.07149198
H       -0.02926433      -0.44818295       0.35609093
H       -2.05579701       0.45007386       1.04776778
H       -1.21296834       1.64027755       2.04970873
H       -1.12574972       1.74491633       0.28099598
C        1.25062545       0.89783720       1.14668172
N        0.00320420       0.16396626       1.18162022
C       -1.14569923       1.04345434       1.13294806
C       -0.09897952      -2.04083735      -4.37816380
N       -0.10243081      -1.98788306      -3.21043540
9
Properties=species:S:1:pos:R:3 charge=-1 charge_a=0 charge_b=-1 selection_a=1-7 selection_b=8-9 scaling=0.8 benchmark_Eint=-5.106 benchmark_unit=kcal/mol group=NH-Na pbc="F F F"
N       -1.04361092       0.38655537       1.16372968
H       -0.74066723      -0.16607149       0.35145276
H       -0.76996304      -0.16277770       1.97005615
C       -0.28309299       1.63303938       1.15719830
H       -0.52349676       2.23394783       2.03945585
H        0.80654213       1.50173280       1.11766831
H       -0.56374645       2.21649212       0.27928954
C        1.05653742      -1.18386636      -1.42016923
N        0.11328950      -0.85593509      -0.81245294
9
Properties=species:S:1:pos:R:3 charge=-1 charge_a=0 charge_b=-1 selection_a=1-7 selection_b=8-9 scaling=0.85 benchmark_Eint=-7.603 benchmark_unit=kcal/mol group=NH-Na pbc="F F F"
N       -1.04361092       0.38655537       1.16372968
H       -0.74066723      -0.16607149       0.35145276
H       -0.76996304      -0.16277770       1.97005615
C       -0.28309299       1.63303938       1.15719830
H       -0.52349676       2.23394783       2.03945585
H        0.80654213       1.50173280       1.11766831
H       -0.56374645       2.21649212       0.27928954
C        1.10990972      -1.22698283      -1.49291334
N        0.16666180      -0.89905157      -0.88519705
9
Properties=species:S:1:pos:R:3 charge=-1 charge_a=0 charge_b=-1 selection_a=1-7 selection_b=8-9 scaling=0.9 benchmark_Eint=-9.071 benchmark_unit=kcal/mol group=NH-Na pbc="F F F"
N       -1.04361092       0.38655537       1.16372968
H       -0.74066723      -0.16607149       0.35145276
H       -0.76996304      -0.16277770       1.97005615
C       -0.28309299       1.63303938       1.15719830
H       -0.52349676       2.23394783       2.03945585
H        0.80654213       1.50173280       1.11766831
H       -0.56374645       2.21649212       0.27928954
C        1.16328201      -1.27009931      -1.56565744
N        0.22003409      -0.94216804      -0.95794116
9
Properties=species:S:1:pos:R:3 charge=-1 charge_a=0 charge_b=-1 selection_a=1-7 selection_b=8-9 scaling=0.95 benchmark_Eint=-9.827 benchmark_unit=kcal/mol group=NH-Na pbc="F F F"
N       -1.04361092       0.38655537       1.16372968
H       -0.74066723      -0.16607149       0.35145276
H       -0.76996304      -0.16277770       1.97005615
C       -0.28309299       1.63303938       1.15719830
H       -0.52349676       2.23394783       2.03945585
H        0.80654213       1.50173280       1.11766831
H       -0.56374645       2.21649212       0.27928954
C        1.21665431      -1.31321578      -1.63840155
N        0.27340639      -0.98528452      -1.03068526
9
Properties=species:S:1:pos:R:3 charge=-1 charge_a=0 charge_b=-1 selection_a=1-7 selection_b=8-9 scaling=1.0 benchmark_Eint=-10.094 benchmark_unit=kcal/mol group=NH-Na pbc="F F F"
N       -1.04361092       0.38655537       1.16372968
H       -0.74066723      -0.16607149       0.35145276
H       -0.76996304      -0.16277770       1.97005615
C       -0.28309299       1.63303938       1.15719830
H       -0.52349676       2.23394783       2.03945585
H        0.80654213       1.50173280       1.11766831
H       -0.56374645       2.21649212       0.27928954
C        1.27002660      -1.35633226      -1.71114566
N        0.32677868      -1.02840099      -1.10342937
9
Properties=species:S:1:pos:R:3 charge=-1 charge_a=0 charge_b=-1 selection_a=1-7 selection_b=8-9 scaling=1.05 benchmark_Eint=-10.038 benchmark_unit=kcal/mol group=NH-Na pbc="F F F"
N       -1.04361092       0.38655537       1.16372968
H       -0.74066723      -0.16607149       0.35145276
H       -0.76996304      -0.16277770       1.97005615
C       -0.28309299       1.63303938       1.15719830
H       -0.52349676       2.23394783       2.03945585
H        0.80654213       1.50173280       1.11766831
H       -0.56374645       2.21649212       0.27928954
C        1.32339890      -1.39944873      -1.78388976
N        0.38015098      -1.07151747      -1.17617347
9
Properties=species:S:1:pos:R:3 charge=-1 charge_a=0 charge_b=-1 selection_a=1-7 selection_b=8-9 scaling=1.1 benchmark_Eint=-9.771 benchmark_unit=kcal/mol group=NH-Na pbc="F F F"
N       -1.04361092       0.38655537       1.16372968
H       -0.74066723      -0.16607149       0.35145276
H       -0.76996304      -0.16277770       1.97005615
C       -0.28309299       1.63303938       1.15719830
H       -0.52349676       2.23394783       2.03945585
H        0.80654213       1.50173280       1.11766831
H       -0.56374645       2.21649212       0.27928954
C        1.37677120      -1.44256521      -1.85663387
N        0.43352327      -1.11463395      -1.24891758
9
Properties=species:S:1:pos:R:3 charge=-1 charge_a=0 charge_b=-1 selection_a=1-7 selection_b=8-9 scaling=1.25 benchmark_Eint=-8.408 benchmark_unit=kcal/mol group=NH-Na pbc="F F F"
N       -1.04361092       0.38655537       1.16372968
H       -0.74066723      -0.16607149       0.35145276
H       -0.76996304      -0.16277770       1.97005615
C       -0.28309299       1.63303938       1.15719830
H       -0.52349676       2.23394783       2.03945585
H        0.80654213       1.50173280       1.11766831
H       -0.56374645       2.21649212       0.27928954
C        1.53688808      -1.57191463      -2.07486619
N        0.59364016      -1.24398337      -1.46714990
9
Properties=species:S:1:pos:R:3 charge=-1 charge_a=0 charge_b=-1 selection_a=1-7 selection_b=8-9 scaling=1.5 benchmark_Eint=-6.04 benchmark_unit=kcal/mol group=NH-Na pbc="F F F"
N       -1.04361092       0.38655537       1.16372968
H       -0.74066723      -0.16607149       0.35145276
H       -0.76996304      -0.16277770       1.97005615
C       -0.28309299       1.63303938       1.15719830
H       -0.52349676       2.23394783       2.03945585
H        0.80654213       1.50173280       1.11766831
H       -0.56374645       2.21649212       0.27928954
C        1.80374956      -1.78749701      -2.43858672
N        0.86050164      -1.45956575      -1.83087043
9
Properties=species:S:1:pos:R:3 charge=-1 charge_a=0 charge_b=-1 selection_a=1-7 selection_b=8-9 scaling=2.0 benchmark_Eint=-3.252 benchmark_unit=kcal/mol group=NH-Na pbc="F F F"
N       -1.04361092       0.38655537       1.16372968
H       -0.74066723      -0.16607149       0.35145276
H       -0.76996304      -0.16277770       1.97005615
C       -0.28309299       1.63303938       1.15719830
H       -0.52349676       2.23394783       2.03945585
H        0.80654213       1.50173280       1.11766831
H       -0.56374645       2.21649212       0.27928954
C        2.33747252      -2.21866176      -3.16602778
N        1.39422460      -1.89073050      -2.55831150
14
Properties=species:S:1:pos:R:3 charge=-1 charge_a=0 charge_b=-1 selection_a=1-12 selection_b=13-14 scaling=0.8 benchmark_Eint=-17.476 benchmark_unit=kcal/mol group=NH-Na pbc="F F F"
C       -0.51466199      -0.03079108       1.85159807
H       -0.74655527       0.85227841       2.44692521
H        0.56374277      -0.14974833       1.77363264
H       -0.94497844      -0.89175644       2.36304250
C       -1.18016630       0.11017896       0.49496584
O       -2.40138853       0.25456054       0.38865388
N       -0.34308910       0.06470463      -0.54921235
H        0.67892184      -0.05862936      -0.40347739
C       -0.82928087       0.18502462      -1.90106333
H       -1.54034767      -0.60793303      -2.14452179
H       -1.34075046       1.13712408      -2.06104526
H        0.02307370       0.11972576      -2.57355096
C        3.22396371      -0.36033349      -0.07532980
N        2.07582241      -0.22493449      -0.24322782
14
Properties=species:S:1:pos:R:3 charge=-1 charge_a=0 charge_b=-1 selection_a=1-12 selection_b=13-14 scaling=0.85 benchmark_Eint=-21.058 benchmark_unit=kcal/mol group=NH-Na pbc="F F F"
C       -0.51466199      -0.03079108       1.85159807
H       -0.74655527       0.85227841       2.44692521
H        0.56374277      -0.14974833       1.77363264
H       -0.94497844      -0.89175644       2.36304250
C       -1.18016630       0.11017896       0.49496584
O       -2.40138853       0.25456054       0.38865388
N       -0.34308910       0.06470463      -0.54921235
H        0.67892184      -0.05862936      -0.40347739
C       -0.82928087       0.18502462      -1.90106333
H       -1.54034767      -0.60793303      -2.14452179
H       -1.34075046       1.13712408      -2.06104526
H        0.02307370       0.11972576      -2.57355096
C        3.31126999      -0.37072756      -0.06531421
N        2.16312870      -0.23532856      -0.23321222
14
Properties=species:S:1:pos:R:3 charge=-1 charge_a=0 charge_b=-1 selection_a=1-12 selection_b=13-14 scaling=0.9 benchmark_Eint=-23.18 benchmark_unit=kcal/mol group=NH-Na pbc="F F F"
C       -0.51466199      -0.03079108       1.85159807
H       -0.74655527       0.85227841       2.44692521
H        0.56374277      -0.14974833       1.77363264
H       -0.94497844      -0.89175644       2.36304250
C       -1.18016630       0.11017896       0.49496584
O       -2.40138853       0.25456054       0.38865388
N       -0.34308910       0.06470463      -0.54921235
H        0.67892184      -0.05862936      -0.40347739
C       -0.82928087       0.18502462      -1.90106333
H       -1.54034767      -0.60793303      -2.14452179
H       -1.34075046       1.13712408      -2.06104526
H        0.02307370       0.11972576      -2.57355096
C        3.39857628      -0.38112163      -0.05529861
N        2.25043498      -0.24572263      -0.22319662
14
Properties=species:S:1:pos:R:3 charge=-1 charge_a=0 charge_b=-1 selection_a=1-12 selection_b=13-14 scaling=0.95 benchmark_Eint=-24.268 benchmark_unit=kcal/mol group=NH-Na pbc="F F F"
C       -0.51466199      -0.03079108       1.85159807
H       -0.74655527       0.85227841       2.44692521
H        0.56374277      -0.14974833       1.77363264
H       -0.94497844      -0.89175644       2.36304250
C       -1.18016630       0.11017896       0.49496584
O       -2.40138853       0.25456054       0.38865388
N       -0.34308910       0.06470463      -0.54921235
H        0.67892184      -0.05862936      -0.40347739
C       -0.82928087       0.18502462      -1.90106333
H       -1.54034767      -0.60793303      -2.14452179
H       -1.34075046       1.13712408      -2.06104526
H        0.02307370       0.11972576      -2.57355096
C        3.48588256      -0.39151570      -0.04528301
N        2.33774127      -0.25611670      -0.21318102
14
Properties=species:S:1:pos:R:3 charge=-1 charge_a=0 charge_b=-1 selection_a=1-12 selection_b=13-14 scaling=1.0 benchmark_Eint=-24.628 benchmark_unit=kcal/mol group=NH-Na pbc="F F F"
C       -0.51466199      -0.03079108       1.85159807
H       -0.74655527       0.85227841       2.44692521
H        0.56374277      -0.14974833       1.77363264
H       -0.94497844      -0.89175644       2.36304250
C       -1.18016630       0.11017896       0.49496584
O       -2.40138853       0.25456054       0.38865388
N       -0.34308910       0.06470463      -0.54921235
H        0.67892184      -0.05862936      -0.40347739
C       -0.82928087       0.18502462      -1.90106333
H       -1.54034767      -0.60793303      -2.14452179
H       -1.34075046       1.13712408      -2.06104526
H        0.02307370       0.11972576      -2.57355096
C        3.57318885      -0.40190977      -0.03526741
N        2.42504755      -0.26651077      -0.20316542
14
Properties=species:S:1:pos:R:3 charge=-1 charge_a=0 charge_b=-1 selection_a=1-12 selection_b=13-14 scaling=1.05 benchmark_Eint=-24.482 benchmark_unit=kcal/mol group=NH-Na pbc="F F F"
C       -0.51466199      -0.03079108       1.85159807
H       -0.74655527       0.85227841       2.44692521
H        0.56374277      -0.14974833       1.77363264
H       -0.94497844      -0.89175644       2.36304250
C       -1.18016630       0.11017896       0.49496584
O       -2.40138853       0.25456054       0.38865388
N       -0.34308910       0.06470463      -0.54921235
H        0.67892184      -0.05862936      -0.40347739
C       -0.82928087       0.18502462      -1.90106333
H       -1.54034767      -0.60793303      -2.14452179
H       -1.34075046       1.13712408      -2.06104526
H        0.02307370       0.11972576      -2.57355096
C        3.66049513      -0.41230384      -0.02525181
N        2.51235384      -0.27690484      -0.19314982
14
Properties=species:S:1:pos:R:3 charge=-1 charge_a=0 charge_b=-1 selection_a=1-12 selection_b=13-14 scaling=1.1 benchmark_Eint=-23.994 benchmark_unit=kcal/mol group=NH-Na pbc="F F F"
C       -0.51466199      -0.03079108       1.85159807
H       -0.74655527       0.85227841       2.44692521
H        0.56374277      -0.14974833       1.77363264
H       -0.94497844      -0.89175644       2.36304250
C       -1.18016630       0.11017896       0.49496584
O       -2.40138853       0.25456054       0.38865388
N       -0.34308910       0.06470463      -0.54921235
H        0.67892184      -0.05862936      -0.40347739
C       -0.82928087       0.18502462      -1.90106333
H       -1.54034767      -0.60793303      -2.14452179
H       -1.34075046       1.13712408      -2.06104526
H        0.02307370       0.11972576      -2.57355096
C        3.74780142      -0.42269791      -0.01523621
N        2.59966012      -0.28729891      -0.18313423
14
Properties=species:S:1:pos:R:3 charge=-1 charge_a=0 charge_b=-1 selection_a=1-12 selection_b=13-14 scaling=1.25 benchmark_Eint=-21.494 benchmark_unit=kcal/mol group=NH-Na pbc="F F F"
C       -0.51466199      -0.03079108       1.85159807
H       -0.74655527       0.85227841       2.44692521
H        0.56374277      -0.14974833       1.77363264
H       -0.94497844      -0.89175644       2.36304250
C       -1.18016630       0.11017896       0.49496584
O       -2.40138853       0.25456054       0.38865388
N       -0.34308910       0.06470463      -0.54921235
H        0.67892184      -0.05862936      -0.40347739
C       -0.82928087       0.18502462      -1.90106333
H       -1.54034767      -0.60793303      -2.14452179
H       -1.34075046       1.13712408      -2.06104526
H        0.02307370       0.11972576      -2.57355096
C        4.00972028      -0.45388012       0.01481058
N        2.86157898      -0.31848112      -0.15308743
14
Properties=species:S:1:pos:R:3 charge=-1 charge_a=0 charge_b=-1 selection_a=1-12 selection_b=13-14 scaling=1.5 benchmark_Eint=-16.794 benchmark_unit=kcal/mol group=NH-Na pbc="F F F"
C       -0.51466199      -0.03079108       1.85159807
H       -0.74655527       0.85227841       2.44692521
H        0.56374277      -0.14974833       1.77363264
H       -0.94497844      -0.89175644       2.36304250
C       -1.18016630       0.11017896       0.49496584
O       -2.40138853       0.25456054       0.38865388
N       -0.34308910       0.06470463      -0.54921235
H        0.67892184      -0.05862936      -0.40347739
C       -0.82928087       0.18502462      -1.90106333
H       -1.54034767      -0.60793303      -2.14452179
H       -1.34075046       1.13712408      -2.06104526
H        0.02307370       0.11972576      -2.57355096
C        4.44625170      -0.50585047       0.06488857
N        3.29811041      -0.37045148      -0.10300944
14
Properties=species:S:1:pos:R:3 charge=-1 charge_a=0 charge_b=-1 selection_a=1-12 selection_b=13-14 scaling=2.0 benchmark_Eint=-10.363 benchmark_unit=kcal/mol group=NH-Na pbc="F F F"
C       -0.51466199      -0.03079108       1.85159807
H       -0.74655527       0.85227841       2.44692521
H        0.56374277      -0.14974833       1.77363264
H       -0.94497844      -0.89175644       2.36304250
C       -1.18016630       0.11017896       0.49496584
O       -2.40138853       0.25456054       0.38865388
N       -0.34308910       0.06470463      -0.54921235
H        0.67892184      -0.05862936      -0.40347739
C       -0.82928087       0.18502462      -1.90106333
H       -1.54034767      -0.60793303      -2.14452179
H       -1.34075046       1.13712408      -2.06104526
H        0.02307370       0.11972576      -2.57355096
C        5.31931456      -0.60979118       0.16504456
N        4.17117326      -0.47439218      -0.00285345
6
Properties=species:S:1:pos:R:3 charge=-1 charge_a=0 charge_b=-1 selection_a=1-4 selection_b=5-6 scaling=0.8 benchmark_Eint=-4.201 benchmark_unit=kcal/mol group=NH-Ca pbc="F F F"
N       -0.82825296       1.80791437      -1.20548968
H       -0.41864811       0.95278901      -0.79617446
H       -0.37140684       2.57512817      -0.72367085
H       -1.78969749       1.82020812      -0.88154967
C        0.19388242      -0.39066637       0.12533395
N        0.56341332      -1.23436072       0.84311679
6
Properties=species:S:1:pos:R:3 charge=-1 charge_a=0 charge_b=-1 selection_a=1-4 selection_b=5-6 scaling=0.85 benchmark_Eint=-6.443 benchmark_unit=kcal/mol group=NH-Ca pbc="F F F"
N       -0.82825296       1.80791437      -1.20548968
H       -0.41864811       0.95278901      -0.79617446
H       -0.37140684       2.57512817      -0.72367085
H       -1.78969749       1.82020812      -0.88154967
C        0.23216558      -0.47463233       0.18292823
N        0.60169647      -1.31832669       0.90071107
6
Properties=species:S:1:pos:R:3 charge=-1 charge_a=0 charge_b=-1 selection_a=1-4 selection_b=5-6 scaling=0.9 benchmark_Eint=-7.764 benchmark_unit=kcal/mol group=NH-Ca pbc="F F F"
N       -0.82825296       1.80791437      -1.20548968
H       -0.41864811       0.95278901      -0.79617446
H       -0.37140684       2.57512817      -0.72367085
H       -1.78969749       1.82020812      -0.88154967
C        0.27044873      -0.55859829       0.24052251
N        0.63997963      -1.40229265       0.95830534
6
Properties=species:S:1:pos:R:3 charge=-1 charge_a=0 charge_b=-1 selection_a=1-4 selection_b=5-6 scaling=0.95 benchmark_Eint=-8.448 benchmark_unit=kcal/mol group=NH-Ca pbc="F F F"
N       -0.82825296       1.80791437      -1.20548968
H       -0.41864811       0.95278901      -0.79617446
H       -0.37140684       2.57512817      -0.72367085
H       -1.78969749       1.82020812      -0.88154967
C        0.30873189      -0.64256425       0.29811678
N        0.67826279      -1.48625861       1.01589962
6
Properties=species:S:1:pos:R:3 charge=-1 charge_a=0 charge_b=-1 selection_a=1-4 selection_b=5-6 scaling=1.0 benchmark_Eint=-8.697 benchmark_unit=kcal/mol group=NH-Ca pbc="F F F"
N       -0.82825296       1.80791437      -1.20548968
H       -0.41864811       0.95278901      -0.79617446
H       -0.37140684       2.57512817      -0.72367085
H       -1.78969749       1.82020812      -0.88154967
C        0.34701505      -0.72653021       0.35571106
N        0.71654595      -1.57022457       1.07349389
6
Properties=species:S:1:pos:R:3 charge=-1 charge_a=0 charge_b=-1 selection_a=1-4 selection_b=5-6 scaling=1.05 benchmark_Eint=-8.656 benchmark_unit=kcal/mol group=NH-Ca pbc="F F F"
N       -0.82825296       1.80791437      -1.20548968
H       -0.41864811       0.95278901      -0.79617446
H       -0.37140684       2.57512817      -0.72367085
H       -1.78969749       1.82020812      -0.88154967
C        0.38529821      -0.81049617       0.41330533
N        0.75482911      -1.65419053       1.13108817
6
Properties=species:S:1:pos:R:3 charge=-1 charge_a=0 charge_b=-1 selection_a=1-4 selection_b=5-6 scaling=1.1 benchmark_Eint=-8.428 benchmark_unit=kcal/mol group=NH-Ca pbc="F F F"
N       -0.82825296       1.80791437      -1.20548968
H       -0.41864811       0.95278901      -0.79617446
H       -0.37140684       2.57512817      -0.72367085
H       -1.78969749       1.82020812      -0.88154967
C        0.42358137      -0.89446213       0.47089961
N        0.79311226      -1.73815649       1.18868245
6
Properties=species:S:1:pos:R:3 charge=-1 charge_a=0 charge_b=-1 selection_a=1-4 selection_b=5-6 scaling=1.25 benchmark_Eint=-7.232 benchmark_unit=kcal/mol group=NH-Ca pbc="F F F"
N       -0.82825296       1.80791437      -1.20548968
H       -0.41864811       0.95278901      -0.79617446
H       -0.37140684       2.57512817      -0.72367085
H       -1.78969749       1.82020812      -0.88154967
C        0.53843084      -1.14636001       0.64368244
N        0.90796174      -1.99005437       1.36146527
6
Properties=species:S:1:pos:R:3 charge=-1 charge_a=0 charge_b=-1 selection_a=1-4 selection_b=5-6 scaling=1.5 benchmark_Eint=-5.148 benchmark_unit=kcal/mol group=NH-Ca pbc="F F F"
N       -0.82825296       1.80791437      -1.20548968
H       -0.41864811       0.95278901      -0.79617446
H       -0.37140684       2.57512817      -0.72367085
H       -1.78969749       1.82020812      -0.88154967
C        0.72984663      -1.56618982       0.93165381
N        1.09937753      -2.40988418       1.64943665
6
Properties=species:S:1:pos:R:3 charge=-1 charge_a=0 charge_b=-1 selection_a=1-4 selection_b=5-6 scaling=2.0 benchmark_Eint=-2.712 benchmark_unit=kcal/mol group=NH-Ca pbc="F F F"
N       -0.82825296       1.80791437      -1.20548968
H       -0.41864811       0.95278901      -0.79617446
H       -0.37140684       2.57512817      -0.72367085
H       -1.78969749       1.82020812      -0.88154967
C        1.11267821      -2.40584943       1.50759657
N        1.48220911      -3.24954379       2.22537941
16
Properties=species:S:1:pos:R:3 charge=-1 charge_a=0 charge_b=-1 selection_a=1-14 selection_b=15-16 scaling=0.8 benchmark_Eint=-11.979 benchmark_unit=kcal/mol group=NH-Ca pbc="F F F"
H        0.44209516      -1.42254784      -0.02772665
H        3.58729088       1.49128956      -0.35313515
H        2.84147527      -0.86394449      -0.07787669
H       -0.51875321       2.71952809      -0.52812369
H       -1.83443808      -0.65944629       0.07239055
H        1.87196553       3.27556609      -0.56994194
H       -2.19769245       1.01197364      -0.15457963
C        2.53450521       1.24678233      -0.33508249
C        2.10922412      -0.07337113      -0.18359412
C        0.76561634      -0.39979892      -0.15874823
C       -0.21974577       0.60117325      -0.28723020
C        0.21868315       1.93169998      -0.43157376
C        1.56987425       2.24171070      -0.45602423
N       -1.54168348       0.26592953      -0.30580772
C       -2.26534912      -2.02872669       0.68188698
N       -2.59863532      -3.04589955       1.14376771
16
Properties=species:S:1:pos:R:3 charge=-1 charge_a=0 charge_b=-1 selection_a=1-14 selection_b=15-16 scaling=0.85 benchmark_Eint=-15.081 benchmark_unit=kcal/mol group=NH-Ca pbc="F F F"
H        0.44209516      -1.42254784      -0.02772665
H        3.58729088       1.49128956      -0.35313515
H        2.84147527      -0.86394449      -0.07787669
H       -0.51875321       2.71952809      -0.52812369
H       -1.83443808      -0.65944629       0.07239055
H        1.87196553       3.27556609      -0.56994194
H       -2.19769245       1.01197364      -0.15457963
C        2.53450521       1.24678233      -0.33508249
C        2.10922412      -0.07337113      -0.18359412
C        0.76561634      -0.39979892      -0.15874823
C       -0.21974577       0.60117325      -0.28723020
C        0.21868315       1.93169998      -0.43157376
C        1.56987425       2.24171070      -0.45602423
N       -1.54168348       0.26592953      -0.30580772
C       -2.29228106      -2.11430672       0.71998051
N       -2.62556726      -3.13147958       1.18186124
16
Properties=species:S:1:pos:R:3 charge=-1 charge_a=0 charge_b=-1 selection_a=1-14 selection_b=15-16 scaling=0.9 benchmark_Eint=-16.912 benchmark_unit=kcal/mol group=NH-Ca pbc="F F F"
H        0.44209516      -1.42254784      -0.02772665
H        3.58729088       1.49128956      -0.35313515
H        2.84147527      -0.86394449      -0.07787669
H       -0.51875321       2.71952809      -0.52812369
H       -1.83443808      -0.65944629       0.07239055
H        1.87196553       3.27556609      -0.56994194
H       -2.19769245       1.01197364      -0.15457963
C        2.53450521       1.24678233      -0.33508249
C        2.10922412      -0.07337113      -0.18359412
C        0.76561634      -0.39979892      -0.15874823
C       -0.21974577       0.60117325      -0.28723020
C        0.21868315       1.93169998      -0.43157376
C        1.56987425       2.24171070      -0.45602423
N       -1.54168348       0.26592953      -0.30580772
C       -2.31921300      -2.19988674       0.75807404
N       -2.65249920      -3.21705960       1.21995476
16
Properties=species:S:1:pos:R:3 charge=-1 charge_a=0 charge_b=-1 selection_a=1-14 selection_b=15-16 scaling=0.95 benchmark_Eint=-17.848 benchmark_unit=kcal/mol group=NH-Ca pbc="F F F"
H        0.44209516      -1.42254784      -0.02772665
H        3.58729088       1.49128956      -0.35313515
H        2.84147527      -0.86394449      -0.07787669
H       -0.51875321       2.71952809      -0.52812369
H       -1.83443808      -0.65944629       0.07239055
H        1.87196553       3.27556609      -0.56994194
H       -2.19769245       1.01197364      -0.15457963
C        2.53450521       1.24678233      -0.33508249
C        2.10922412      -0.07337113      -0.18359412
C        0.76561634      -0.39979892      -0.15874823
C       -0.21974577       0.60117325      -0.28723020
C        0.21868315       1.93169998      -0.43157376
C        1.56987425       2.24171070      -0.45602423
N       -1.54168348       0.26592953      -0.30580772
C       -2.34614494      -2.28546677       0.79616756
N       -2.67943114      -3.30263963       1.25804829
16
Properties=species:S:1:pos:R:3 charge=-1 charge_a=0 charge_b=-1 selection_a=1-14 selection_b=15-16 scaling=1.0 benchmark_Eint=-18.156 benchmark_unit=kcal/mol group=NH-Ca pbc="F F F"
H        0.44209516      -1.42254784      -0.02772665
H        3.58729088       1.49128956      -0.35313515
H        2.84147527      -0.86394449      -0.07787669
H       -0.51875321       2.71952809      -0.52812369
H       -1.83443808      -0.65944629       0.07239055
H        1.87196553       3.27556609      -0.56994194
H       -2.19769245       1.01197364      -0.15457963
C        2.53450521       1.24678233      -0.33508249
C        2.10922412      -0.07337113      -0.18359412
C        0.76561634      -0.39979892      -0.15874823
C       -0.21974577       0.60117325      -0.28723020
C        0.21868315       1.93169998      -0.43157376
C        1.56987425       2.24171070      -0.45602423
N       -1.54168348       0.26592953      -0.30580772
C       -2.37307688      -2.37104679       0.83426109
N       -2.70636308      -3.38821965       1.29614182
16
Properties=species:S:1:pos:R:3 charge=-1 charge_a=0 charge_b=-1 selection_a=1-14 selection_b=15-16 scaling=1.05 benchmark_Eint=-18.03 benchmark_unit=kcal/mol group=NH-Ca pbc="F F F"
H        0.44209516      -1.42254784      -0.02772665
H        3.58729088       1.49128956      -0.35313515
H        2.84147527      -0.86394449      -0.07787669
H       -0.51875321       2.71952809      -0.52812369
H       -1.83443808      -0.65944629       0.07239055
H        1.87196553       3.27556609      -0.56994194
H       -2.19769245       1.01197364      -0.15457963
C        2.53450521       1.24678233      -0.33508249
C        2.10922412      -0.07337113      -0.18359412
C        0.76561634      -0.39979892      -0.15874823
C       -0.21974577       0.60117325      -0.28723020
C        0.21868315       1.93169998      -0.43157376
C        1.56987425       2.24171070      -0.45602423
N       -1.54168348       0.26592953      -0.30580772
C       -2.40000882      -2.45662682       0.87235462
N       -2.73329502      -3.47379968       1.33423534
16
Properties=species:S:1:pos:R:3 charge=-1 charge_a=0 charge_b=-1 selection_a=1-14 selection_b=15-16 scaling=1.1 benchmark_Eint=-17.611 benchmark_unit=kcal/mol group=NH-Ca pbc="F F F"
H        0.44209516      -1.42254784      -0.02772665
H        3.58729088       1.49128956      -0.35313515
H        2.84147527      -0.86394449      -0.07787669
H       -0.51875321       2.71952809      -0.52812369
H       -1.83443808      -0.65944629       0.07239055
H        1.87196553       3.27556609      -0.56994194
H       -2.19769245       1.01197364      -0.15457963
C        2.53450521       1.24678233      -0.33508249
C        2.10922412      -0.07337113      -0.18359412
C        0.76561634      -0.39979892      -0.15874823
C       -0.21974577       0.60117325      -0.28723020
C        0.21868315       1.93169998      -0.43157376
C        1.56987425       2.24171070      -0.45602423
N       -1.54168348       0.26592953      -0.30580772
C       -2.42694076      -2.54220684       0.91044814
N       -2.76022696      -3.55937970       1.37232887
16
Properties=species:S:1:pos:R:3 charge=-1 charge_a=0 charge_b=-1 selection_a=1-14 selection_b=15-16 scaling=1.25 benchmark_Eint=-15.485 benchmark_unit=kcal/mol group=NH-Ca pbc="F F F"
H        0.44209516      -1.42254784      -0.02772665
H        3.58729088       1.49128956      -0.35313515
H        2.84147527      -0.86394449      -0.07787669
H       -0.51875321       2.71952809      -0.52812369
H       -1.83443808      -0.65944629       0.07239055
H        1.87196553       3.27556609      -0.56994194
H       -2.19769245       1.01197364      -0.15457963
C        2.53450521       1.24678233      -0.33508249
C        2.10922412      -0.07337113      -0.18359412
C        0.76561634      -0.39979892      -0.15874823
C       -0.21974577       0.60117325      -0.28723020
C        0.21868315       1.93169998      -0.43157376
C        1.56987425       2.24171070      -0.45602423
N       -1.54168348       0.26592953      -0.30580772
C       -2.50773658      -2.79894692       1.02472873
N       -2.84102278      -3.81611978       1.48660945
16
Properties=species:S:1:pos:R:3 charge=-1 charge_a=0 charge_b=-1 selection_a=1-14 selection_b=15-16 scaling=1.5 benchmark_Eint=-11.542 benchmark_unit=kcal/mol group=NH-Ca pbc="F F F"
H        0.44209516      -1.42254784      -0.02772665
H        3.58729088       1.49128956      -0.35313515
H        2.84147527      -0.86394449      -0.07787669
H       -0.51875321       2.71952809      -0.52812369
H       -1.83443808      -0.65944629       0.07239055
H        1.87196553       3.27556609      -0.56994194
H       -2.19769245       1.01197364      -0.15457963
C        2.53450521       1.24678233      -0.33508249
C        2.10922412      -0.07337113      -0.18359412
C        0.76561634      -0.39979892      -0.15874823
C       -0.21974577       0.60117325      -0.28723020
C        0.21868315       1.93169998      -0.43157376
C        1.56987425       2.24171070      -0.45602423
N       -1.54168348       0.26592953      -0.30580772
C       -2.64239628      -3.22684704       1.21519636
N       -2.97568248      -4.24401990       1.67707709
16
Properties=species:S:1:pos:R:3 charge=-1 charge_a=0 charge_b=-1 selection_a=1-14 selection_b=15-16 scaling=2.0 benchmark_Eint=-6.35 benchmark_unit=kcal/mol group=NH-Ca pbc="F F F"
H        0.44209516      -1.42254784      -0.02772665
H        3.58729088       1.49128956      -0.35313515
H        2.84147527      -0.86394449      -0.07787669
H       -0.51875321       2.71952809      -0.52812369
H       -1.83443808      -0.65944629       0.07239055
H        1.87196553       3.27556609      -0.56994194
H       -2.19769245       1.01197364      -0.15457963
C        2.53450521       1.24678233      -0.33508249
C        2.10922412      -0.07337113      -0.18359412
C        0.76561634      -0.39979892      -0.15874823
C       -0.21974577       0.60117325      -0.28723020
C        0.21868315       1.93169998      -0.43157376
C        1.56987425       2.24171070      -0.45602423
N       -1.54168348       0.26592953      -0.30580772
C       -2.91171568      -4.08264729       1.59613163
N       -3.24500188      -5.09982015       2.05801236
12
Properties=species:S:1:pos:R:3 charge=-1 charge_a=0 charge_b=-1 selection_a=1-10 selection_b=11-12 scaling=0.8 benchmark_Eint=-6.04 benchmark_unit=kcal/mol group=NH-Ca pbc="F F F"
H        1.60641361       1.65400664       1.91981506
H        1.41490776       1.69414741       0.15754313
H        2.17909090       0.30012997       0.93503345
H       -0.00218519      -0.30121472       0.42342286
H       -1.93544320       0.71039971       1.21101973
H       -0.98268328       1.91217086       2.09348408
H       -1.02177793       1.93711647       0.32098707
C        1.38204224       1.03547215       1.04339270
N        0.11605479       0.35523014       1.21008003
C       -1.00219978       1.27321207       1.20331983
C       -0.17865849      -1.09316356      -1.03468288
N       -0.29709823      -1.59828569      -2.08003960
12
Properties=species:S:1:pos:R:3 charge=-1 charge_a=0 charge_b=-1 selection_a=1-10 selection_b=11-12 scaling=0.85 benchmark_Eint=-8.62 benchmark_unit=kcal/mol group=NH-Ca pbc="F F F"
H        1.60641361       1.65400664       1.91981506
H        1.41490776       1.69414741       0.15754313
H        2.17909090       0.30012997       0.93503345
H       -0.00218519      -0.30121472       0.42342286
H       -1.93544320       0.71039971       1.21101973
H       -0.98268328       1.91217086       2.09348408
H       -1.02177793       1.93711647       0.32098707
C        1.38204224       1.03547215       1.04339270
N        0.11605479       0.35523014       1.21008003
C       -1.00219978       1.27321207       1.20331983
C       -0.18968807      -1.14266036      -1.12581449
N       -0.30812782      -1.64778249      -2.17117121
12
Properties=species:S:1:pos:R:3 charge=-1 charge_a=0 charge_b=-1 selection_a=1-10 selection_b=11-12 scaling=0.9 benchmark_Eint=-10.15 benchmark_unit=kcal/mol group=NH-Ca pbc="F F F"
H        1.60641361       1.65400664       1.91981506
H        1.41490776       1.69414741       0.15754313
H        2.17909090       0.30012997       0.93503345
H       -0.00218519      -0.30121472       0.42342286
H       -1.93544320       0.71039971       1.21101973
H       -0.98268328       1.91217086       2.09348408
H       -1.02177793       1.93711647       0.32098707
C        1.38204224       1.03547215       1.04339270
N        0.11605479       0.35523014       1.21008003
C       -1.00219978       1.27321207       1.20331983
C       -0.20071765      -1.19215716      -1.21694609
N       -0.31915740      -1.69727929      -2.26230282
12
Properties=species:S:1:pos:R:3 charge=-1 charge_a=0 charge_b=-1 selection_a=1-10 selection_b=11-12 scaling=0.95 benchmark_Eint=-10.941 benchmark_unit=kcal/mol group=NH-Ca pbc="F F F"
H        1.60641361       1.65400664       1.91981506
H        1.41490776       1.69414741       0.15754313
H        2.17909090       0.30012997       0.93503345
H       -0.00218519      -0.30121472       0.42342286
H       -1.93544320       0.71039971       1.21101973
H       -0.98268328       1.91217086       2.09348408
H       -1.02177793       1.93711647       0.32098707
C        1.38204224       1.03547215       1.04339270
N        0.11605479       0.35523014       1.21008003
C       -1.00219978       1.27321207       1.20331983
C       -0.21174723      -1.24165396      -1.30807770
N       -0.33018698      -1.74677609      -2.35343443
12
Properties=species:S:1:pos:R:3 charge=-1 charge_a=0 charge_b=-1 selection_a=1-10 selection_b=11-12 scaling=1.0 benchmark_Eint=-11.221 benchmark_unit=kcal/mol group=NH-Ca pbc="F F F"
H        1.60641361       1.65400664       1.91981506
H        1.41490776       1.69414741       0.15754313
H        2.17909090       0.30012997       0.93503345
H       -0.00218519      -0.30121472       0.42342286
H       -1.93544320       0.71039971       1.21101973
H       -0.98268328       1.91217086       2.09348408
H       -1.02177793       1.93711647       0.32098707
C        1.38204224       1.03547215       1.04339270
N        0.11605479       0.35523014       1.21008003
C       -1.00219978       1.27321207       1.20331983
C       -0.22277681      -1.29115077      -1.39920931
N       -0.34121656      -1.79627290      -2.44456603
12
Properties=species:S:1:pos:R:3 charge=-1 charge_a=0 charge_b=-1 selection_a=1-10 selection_b=11-12 scaling=1.05 benchmark_Eint=-11.155 benchmark_unit=kcal/mol group=NH-Ca pbc="F F F"
H        1.60641361       1.65400664       1.91981506
H        1.41490776       1.69414741       0.15754313
H        2.17909090       0.30012997       0.93503345
H       -0.00218519      -0.30121472       0.42342286
H       -1.93544320       0.71039971       1.21101973
H       -0.98268328       1.91217086       2.09348408
H       -1.02177793       1.93711647       0.32098707
C        1.38204224       1.03547215       1.04339270
N        0.11605479       0.35523014       1.21008003
C       -1.00219978       1.27321207       1.20331983
C       -0.23380639      -1.34064757      -1.49034092
N       -0.35224614      -1.84576970      -2.53569764
12
Properties=species:S:1:pos:R:3 charge=-1 charge_a=0 charge_b=-1 selection_a=1-10 selection_b=11-12 scaling=1.1 benchmark_Eint=-10.862 benchmark_unit=kcal/mol group=NH-Ca pbc="F F F"
H        1.60641361       1.65400664       1.91981506
H        1.41490776       1.69414741       0.15754313
H        2.17909090       0.30012997       0.93503345
H       -0.00218519      -0.30121472       0.42342286
H       -1.93544320       0.71039971       1.21101973
H       -0.98268328       1.91217086       2.09348408
H       -1.02177793       1.93711647       0.32098707
C        1.38204224       1.03547215       1.04339270
N        0.11605479       0.35523014       1.21008003
C       -1.00219978       1.27321207       1.20331983
C       -0.24483597      -1.39014437      -1.58147253
N       -0.36327572      -1.89526650      -2.62682925
12
Properties=species:S:1:pos:R:3 charge=-1 charge_a=0 charge_b=-1 selection_a=1-10 selection_b=11-12 scaling=1.25 benchmark_Eint=-9.343 benchmark_unit=kcal/mol group=NH-Ca pbc="F F F"
H        1.60641361       1.65400664       1.91981506
H        1.41490776       1.69414741       0.15754313
H        2.17909090       0.30012997       0.93503345
H       -0.00218519      -0.30121472       0.42342286
H       -1.93544320       0.71039971       1.21101973
H       -0.98268328       1.91217086       2.09348408
H       -1.02177793       1.93711647       0.32098707
C        1.38204224       1.03547215       1.04339270
N        0.11605479       0.35523014       1.21008003
C       -1.00219978       1.27321207       1.20331983
C       -0.27792472      -1.53863478      -1.85486736
N       -0.39636446      -2.04375691      -2.90022408
12
Properties=species:S:1:pos:R:3 charge=-1 charge_a=0 charge_b=-1 selection_a=1-10 selection_b=11-12 scaling=1.5 benchmark_Eint=-6.648 benchmark_unit=kcal/mol group=NH-Ca pbc="F F F"
H        1.60641361       1.65400664       1.91981506
H        1.41490776       1.69414741       0.15754313
H        2.17909090       0.30012997       0.93503345
H       -0.00218519      -0.30121472       0.42342286
H       -1.93544320       0.71039971       1.21101973
H       -0.98268328       1.91217086       2.09348408
H       -1.02177793       1.93711647       0.32098707
C        1.38204224       1.03547215       1.04339270
N        0.11605479       0.35523014       1.21008003
C       -1.00219978       1.27321207       1.20331983
C       -0.33307262      -1.78611879      -2.31052540
N       -0.45151237      -2.29124092      -3.35588212
12
Properties=species:S:1:pos:R:3 charge=-1 charge_a=0 charge_b=-1 selection_a=1-10 selection_b=11-12 scaling=2.0 benchmark_Eint=-3.418 benchmark_unit=kcal/mol group=NH-Ca pbc="F F F"
H        1.60641361       1.65400664       1.91981506
H        1.41490776       1.69414741       0.15754313
H        2.17909090       0.30012997       0.93503345
H       -0.00218519      -0.30121472       0.42342286
H       -1.93544320       0.71039971       1.21101973
H       -0.98268328       1.91217086       2.09348408
H       -1.02177793       1.93711647       0.32098707
C        1.38204224       1.03547215       1.04339270
N        0.11605479       0.35523014       1.21008003
C       -1.00219978       1.27321207       1.20331983
C       -0.44336843      -2.28108681      -3.22184149
N       -0.56180818      -2.78620894      -4.26719821
9
Properties=species:S:1:pos:R:3 charge=-1 charge_a=0 charge_b=-1 selection_a=1-7 selection_b=8-9 scaling=0.8 benchmark_Eint=-5.04 benchmark_unit=kcal/mol group=NH-Ca pbc="F F F"
N       -0.78225164       0.65630415       1.37743697
H       -0.64050600       0.02860141       0.57248225
H       -0.42689525       0.14229907       2.17532861
C        0.04145026       1.84243583       1.16693070
H       -0.02855225       2.51616537       2.02606982
H        1.10465249       1.63512411       0.98199776
H       -0.33119824       2.38498795       0.29699360
C       -0.01681876      -0.88922287      -0.73932732
N        0.49481464      -1.52980194      -1.57051645
9
Properties=species:S:1:pos:R:3 charge=-1 charge_a=0 charge_b=-1 selection_a=1-7 selection_b=8-9 scaling=0.85 benchmark_Eint=-7.415 benchmark_unit=kcal/mol group=NH-Ca pbc="F F F"
N       -0.78225164       0.65630415       1.37743697
H       -0.64050600       0.02860141       0.57248225
H       -0.42689525       0.14229907       2.17532861
C        0.04145026       1.84243583       1.16693070
H       -0.02855225       2.51616537       2.02606982
H        1.10465249       1.63512411       0.98199776
H       -0.33119824       2.38498795       0.29699360
C        0.02216170      -0.94658689      -0.82131542
N        0.53379509      -1.58716596      -1.65250455
9
Properties=species:S:1:pos:R:3 charge=-1 charge_a=0 charge_b=-1 selection_a=1-7 selection_b=8-9 scaling=0.9 benchmark_Eint=-8.815 benchmark_unit=kcal/mol group=NH-Ca pbc="F F F"
N       -0.78225164       0.65630415       1.37743697
H       -0.64050600       0.02860141       0.57248225
H       -0.42689525       0.14229907       2.17532861
C        0.04145026       1.84243583       1.16693070
H       -0.02855225       2.51616537       2.02606982
H        1.10465249       1.63512411       0.98199776
H       -0.33119824       2.38498795       0.29699360
C        0.06114215      -1.00395090      -0.90330352
N        0.57277554      -1.64452998      -1.73449264
9
Properties=species:S:1:pos:R:3 charge=-1 charge_a=0 charge_b=-1 selection_a=1-7 selection_b=8-9 scaling=0.95 benchmark_Eint=-9.537 benchmark_unit=kcal/mol group=NH-Ca pbc="F F F"
N       -0.78225164       0.65630415       1.37743697
H       -0.64050600       0.02860141       0.57248225
H       -0.42689525       0.14229907       2.17532861
C        0.04145026       1.84243583       1.16693070
H       -0.02855225       2.51616537       2.02606982
H        1.10465249       1.63512411       0.98199776
H       -0.33119824       2.38498795       0.29699360
C        0.10012260      -1.06131492      -0.98529162
N        0.61175600      -1.70189400      -1.81648074
9
Properties=species:S:1:pos:R:3 charge=-1 charge_a=0 charge_b=-1 selection_a=1-7 selection_b=8-9 scaling=1.0 benchmark_Eint=-9.792 benchmark_unit=kcal/mol group=NH-Ca pbc="F F F"
N       -0.78225164       0.65630415       1.37743697
H       -0.64050600       0.02860141       0.57248225
H       -0.42689525       0.14229907       2.17532861
C        0.04145026       1.84243583       1.16693070
H       -0.02855225       2.51616537       2.02606982
H        1.10465249       1.63512411       0.98199776
H       -0.33119824       2.38498795       0.29699360
C        0.13910305      -1.11867894      -1.06727971
N        0.65073645      -1.75925801      -1.89846884
9
Properties=species:S:1:pos:R:3 charge=-1 charge_a=0 charge_b=-1 selection_a=1-7 selection_b=8-9 scaling=1.05 benchmark_Eint=-9.734 benchmark_unit=kcal/mol group=NH-Ca pbc="F F F"
N       -0.78225164       0.65630415       1.37743697
H       -0.64050600       0.02860141       0.57248225
H       -0.42689525       0.14229907       2.17532861
C        0.04145026       1.84243583       1.16693070
H       -0.02855225       2.51616537       2.02606982
H        1.10465249       1.63512411       0.98199776
H       -0.33119824       2.38498795       0.29699360
C        0.17808351      -1.17604296      -1.14926781
N        0.68971690      -1.81662203      -1.98045694
9
Properties=species:S:1:pos:R:3 charge=-1 charge_a=0 charge_b=-1 selection_a=1-7 selection_b=8-9 scaling=1.1 benchmark_Eint=-9.474 benchmark_unit=kcal/mol group=NH-Ca pbc="F F F"
N       -0.78225164       0.65630415       1.37743697
H       -0.64050600       0.02860141       0.57248225
H       -0.42689525       0.14229907       2.17532861
C        0.04145026       1.84243583       1.16693070
H       -0.02855225       2.51616537       2.02606982
H        1.10465249       1.63512411       0.98199776
H       -0.33119824       2.38498795       0.29699360
C        0.21706396      -1.23340697      -1.23125591
N        0.72869735      -1.87398605      -2.06244504
9
Properties=species:S:1:pos:R:3 charge=-1 charge_a=0 charge_b=-1 selection_a=1-7 selection_b=8-9 scaling=1.25 benchmark_Eint=-8.133 benchmark_unit=kcal/mol group=NH-Ca pbc="F F F"
N       -0.78225164       0.65630415       1.37743697
H       -0.64050600       0.02860141       0.57248225
H       -0.42689525       0.14229907       2.17532861
C        0.04145026       1.84243583       1.16693070
H       -0.02855225       2.51616537       2.02606982
H        1.10465249       1.63512411       0.98199776
H       -0.33119824       2.38498795       0.29699360
C        0.33400532      -1.40549902      -1.47722021
N        0.84563871      -2.04607810      -2.30840933
9
Properties=species:S:1:pos:R:3 charge=-1 charge_a=0 charge_b=-1 selection_a=1-7 selection_b=8-9 scaling=1.5 benchmark_Eint=-5.788 benchmark_unit=kcal/mol group=NH-Ca pbc="F F F"
N       -0.78225164       0.65630415       1.37743697
H       -0.64050600       0.02860141       0.57248225
H       -0.42689525       0.14229907       2.17532861
C        0.04145026       1.84243583       1.16693070
H       -0.02855225       2.51616537       2.02606982
H        1.10465249       1.63512411       0.98199776
H       -0.33119824       2.38498795       0.29699360
C        0.52890758      -1.69231911      -1.88716070
N        1.04054098      -2.33289819      -2.71834982
9
Properties=species:S:1:pos:R:3 charge=-1 charge_a=0 charge_b=-1 selection_a=1-7 selection_b=8-9 scaling=2.0 benchmark_Eint=-3.025 benchmark_unit=kcal/mol group=NH-Ca pbc="F F F"
N       -0.78225164       0.65630415       1.37743697
H       -0.64050600       0.02860141       0.57248225
H       -0.42689525       0.14229907       2.17532861
C        0.04145026       1.84243583       1.16693070
H       -0.02855225       2.51616537       2.02606982
H        1.10465249       1.63512411       0.98199776
H       -0.33119824       2.38498795       0.29699360
C        0.91871211      -2.26595928      -2.70704168
N        1.43034551      -2.90653836      -3.53823080
14
Properties=species:S:1:pos:R:3 charge=-1 charge_a=0 charge_b=-1 selection_a=1-12 selection_b=13-14 scaling=0.8 benchmark_Eint=-17.773 benchmark_unit=kcal/mol group=NH-Ca pbc="F F F"
C       -0.57028591      -0.66955680       1.76029357
H       -1.24147762      -0.14652686       2.44135208
H        0.42353598      -0.23049507       1.81443652
H       -0.53015193      -1.71176116       2.07666449
C       -1.15387348      -0.60856251       0.36045561
O       -2.27523337      -1.06073151       0.11240725
N       -0.36224430      -0.03520501      -0.55404697
H        0.58030644       0.33289826      -0.29450795
C       -0.77727429       0.09653224      -1.92794061
H       -1.69008513       0.69007517      -2.01765527
H        0.02466899       0.58854525      -2.47451839
H       -0.97809406      -0.87621396      -2.38290394
C        1.96384046       0.89593321      -0.01210406
N        3.02503380       1.32764022       0.19994203
14
Properties=species:S:1:pos:R:3 charge=-1 charge_a=0 charge_b=-1 selection_a=1-12 selection_b=13-14 scaling=0.85 benchmark_Eint=-21.161 benchmark_unit=kcal/mol group=NH-Ca pbc="F F F"
C       -0.57028591      -0.66955680       1.76029357
H       -1.24147762      -0.14652686       2.44135208
H        0.42353598      -0.23049507       1.81443652
H       -0.53015193      -1.71176116       2.07666449
C       -1.15387348      -0.60856251       0.36045561
O       -2.27523337      -1.06073151       0.11240725
N       -0.36224430      -0.03520501      -0.55404697
H        0.58030644       0.33289826      -0.29450795
C       -0.77727429       0.09653224      -1.92794061
H       -1.69008513       0.69007517      -2.01765527
H        0.02466899       0.58854525      -2.47451839
H       -0.97809406      -0.87621396      -2.38290394
C        2.05031134       0.93112289       0.00554619
N        3.11150468       1.36282990       0.21759227
14
Properties=species:S:1:pos:R:3 charge=-1 charge_a=0 charge_b=-1 selection_a=1-12 selection_b=13-14 scaling=0.9 benchmark_Eint=-23.163 benchmark_unit=kcal/mol group=NH-Ca pbc="F F F"
C       -0.57028591      -0.66955680       1.76029357
H       -1.24147762      -0.14652686       2.44135208
H        0.42353598      -0.23049507       1.81443652
H       -0.53015193      -1.71176116       2.07666449
C       -1.15387348      -0.60856251       0.36045561
O       -2.27523337      -1.06073151       0.11240725
N       -0.36224430      -0.03520501      -0.55404697
H        0.58030644       0.33289826      -0.29450795
C       -0.77727429       0.09653224      -1.92794061
H       -1.69008513       0.69007517      -2.01765527
H        0.02466899       0.58854525      -2.47451839
H       -0.97809406      -0.87621396      -2.38290394
C        2.13678222       0.96631258       0.02319643
N        3.19797556       1.39801958       0.23524252
14
Properties=species:S:1:pos:R:3 charge=-1 charge_a=0 charge_b=-1 selection_a=1-12 selection_b=13-14 scaling=0.95 benchmark_Eint=-24.18 benchmark_unit=kcal/mol group=NH-Ca pbc="F F F"
C       -0.57028591      -0.66955680       1.76029357
H       -1.24147762      -0.14652686       2.44135208
H        0.42353598      -0.23049507       1.81443652
H       -0.53015193      -1.71176116       2.07666449
C       -1.15387348      -0.60856251       0.36045561
O       -2.27523337      -1.06073151       0.11240725
N       -0.36224430      -0.03520501      -0.55404697
H        0.58030644       0.33289826      -0.29450795
C       -0.77727429       0.09653224      -1.92794061
H       -1.69008513       0.69007517      -2.01765527
H        0.02466899       0.58854525      -2.47451839
H       -0.97809406      -0.87621396      -2.38290394
C        2.22325309       1.00150226       0.04084667
N        3.28444643       1.43320927       0.25289276
14
Properties=species:S:1:pos:R:3 charge=-1 charge_a=0 charge_b=-1 selection_a=1-12 selection_b=13-14 scaling=1.0 benchmark_Eint=-24.502 benchmark_unit=kcal/mol group=NH-Ca pbc="F F F"
C       -0.57028591      -0.66955680       1.76029357
H       -1.24147762      -0.14652686       2.44135208
H        0.42353598      -0.23049507       1.81443652
H       -0.53015193      -1.71176116       2.07666449
C       -1.15387348      -0.60856251       0.36045561
O       -2.27523337      -1.06073151       0.11240725
N       -0.36224430      -0.03520501      -0.55404697
H        0.58030644       0.33289826      -0.29450795
C       -0.77727429       0.09653224      -1.92794061
H       -1.69008513       0.69007517      -2.01765527
H        0.02466899       0.58854525      -2.47451839
H       -0.97809406      -0.87621396      -2.38290394
C        2.30972397       1.03669194       0.05849692
N        3.37091731       1.46839895       0.27054300
14
Properties=species:S:1:pos:R:3 charge=-1 charge_a=0 charge_b=-1 selection_a=1-12 selection_b=13-14 scaling=1.05 benchmark_Eint=-24.338 benchmark_unit=kcal/mol group=NH-Ca pbc="F F F"
C       -0.57028591      -0.66955680       1.76029357
H       -1.24147762      -0.14652686       2.44135208
H        0.42353598      -0.23049507       1.81443652
H       -0.53015193      -1.71176116       2.07666449
C       -1.15387348      -0.60856251       0.36045561
O       -2.27523337      -1.06073151       0.11240725
N       -0.36224430      -0.03520501      -0.55404697
H        0.58030644       0.33289826      -0.29450795
C       -0.77727429       0.09653224      -1.92794061
H       -1.69008513       0.69007517      -2.01765527
H        0.02466899       0.58854525      -2.47451839
H       -0.97809406      -0.87621396      -2.38290394
C        2.39619484       1.07188163       0.07614716
N        3.45738819       1.50358864       0.28819324
14
Properties=species:S:1:pos:R:3 charge=-1 charge_a=0 charge_b=-1 selection_a=1-12 selection_b=13-14 scaling=1.1 benchmark_Eint=-23.842 benchmark_unit=kcal/mol group=NH-Ca pbc="F F F"
C       -0.57028591      -0.66955680       1.76029357
H       -1.24147762      -0.14652686       2.44135208
H        0.42353598      -0.23049507       1.81443652
H       -0.53015193      -1.71176116       2.07666449
C       -1.15387348      -0.60856251       0.36045561
O       -2.27523337      -1.06073151       0.11240725
N       -0.36224430      -0.03520501      -0.55404697
H        0.58030644       0.33289826      -0.29450795
C       -0.77727429       0.09653224      -1.92794061
H       -1.69008513       0.69007517      -2.01765527
H        0.02466899       0.58854525      -2.47451839
H       -0.97809406      -0.87621396      -2.38290394
C        2.48266572       1.10707131       0.09379740
N        3.54385906       1.53877832       0.30584349
14
Properties=species:S:1:pos:R:3 charge=-1 charge_a=0 charge_b=-1 selection_a=1-12 selection_b=13-14 scaling=1.25 benchmark_Eint=-21.34 benchmark_unit=kcal/mol group=NH-Ca pbc="F F F"
C       -0.57028591      -0.66955680       1.76029357
H       -1.24147762      -0.14652686       2.44135208
H        0.42353598      -0.23049507       1.81443652
H       -0.53015193      -1.71176116       2.07666449
C       -1.15387348      -0.60856251       0.36045561
O       -2.27523337      -1.06073151       0.11240725
N       -0.36224430      -0.03520501      -0.55404697
H        0.58030644       0.33289826      -0.29450795
C       -0.77727429       0.09653224      -1.92794061
H       -1.69008513       0.69007517      -2.01765527
H        0.02466899       0.58854525      -2.47451839
H       -0.97809406      -0.87621396      -2.38290394
C        2.74207835       1.21264036       0.14674813
N        3.80327169       1.64434737       0.35879422
14
Properties=species:S:1:pos:R:3 charge=-1 charge_a=0 charge_b=-1 selection_a=1-12 selection_b=13-14 scaling=1.5 benchmark_Eint=-16.609 benchmark_unit=kcal/mol group=NH-Ca pbc="F F F"
C       -0.57028591      -0.66955680       1.76029357
H       -1.24147762      -0.14652686       2.44135208
H        0.42353598      -0.23049507       1.81443652
H       -0.53015193      -1.71176116       2.07666449
C       -1.15387348      -0.60856251       0.36045561
O       -2.27523337      -1.06073151       0.11240725
N       -0.36224430      -0.03520501      -0.55404697
H        0.58030644       0.33289826      -0.29450795
C       -0.77727429       0.09653224      -1.92794061
H       -1.69008513       0.69007517      -2.01765527
H        0.02466899       0.58854525      -2.47451839
H       -0.97809406      -0.87621396      -2.38290394
C        3.17443273       1.38858878       0.23499935
N        4.23562607       1.82029579       0.44704543
14
Properties=species:S:1:pos:R:3 charge=-1 charge_a=0 charge_b=-1 selection_a=1-12 selection_b=13-14 scaling=2.0 benchmark_Eint=-10.083 benchmark_unit=kcal/mol group=NH-Ca pbc="F F F"
C       -0.57028591      -0.66955680       1.76029357
H       -1.24147762      -0.14652686       2.44135208
H        0.42353598      -0.23049507       1.81443652
H       -0.53015193      -1.71176116       2.07666449
C       -1.15387348      -0.60856251       0.36045561
O       -2.27523337      -1.06073151       0.11240725
N       -0.36224430      -0.03520501      -0.55404697
H        0.58030644       0.33289826      -0.29450795
C       -0.77727429       0.09653224      -1.92794061
H       -1.69008513       0.69007517      -2.01765527
H        0.02466899       0.58854525      -2.47451839
H       -0.97809406      -0.87621396      -2.38290394
C        4.03914149       1.74048562       0.41150178
N        5.10033483       2.17219263       0.62354787
10
Properties=species:S:1:pos:R:3 charge=-2 charge_a=0 charge_b=-2 selection_a=1-4 selection_b=5-10 scaling=0.8 benchmark_Eint=-15.398 benchmark_unit=kcal/mol group=CH-Oa pbc="F F F"
C        3.22081885       0.16937443      -0.23060028
H        2.07974448       0.09605911      -0.03342488
C        4.40997413       0.24606924      -0.43901487
H        5.45043402       0.31470230      -0.63386990
C       -0.15429758       0.03719487      -0.36988811
O        0.88881459      -0.00441624       0.37375616
O       -0.14644854       0.18450186      -1.61151050
C       -1.52642822      -0.10999650       0.35824182
O       -2.07127014       0.95678276       0.74796255
O       -1.97186422      -1.28164774       0.48302349
10
Properties=species:S:1:pos:R:3 charge=-2 charge_a=0 charge_b=-2 selection_a=1-4 selection_b=5-10 scaling=0.85 benchmark_Eint=-18.785 benchmark_unit=kcal/mol group=CH-Oa pbc="F F F"
C        3.22081885       0.16937443      -0.23060028
H        2.07974448       0.09605911      -0.03342488
C        4.40997413       0.24606924      -0.43901487
H        5.45043402       0.31470230      -0.63386990
C       -0.22873070       0.03091516      -0.34443930
O        0.81438147      -0.01069595       0.39920498
O       -0.22088166       0.17822215      -1.58606169
C       -1.60086134      -0.11627620       0.38369064
O       -2.14570326       0.95050305       0.77341136
O       -2.04629734      -1.28792745       0.50847230
10
Properties=species:S:1:pos:R:3 charge=-2 charge_a=0 charge_b=-2 selection_a=1-4 selection_b=5-10 scaling=0.9 benchmark_Eint=-20.818 benchmark_unit=kcal/mol group=CH-Oa pbc="F F F"
C        3.22081885       0.16937443      -0.23060028
H        2.07974448       0.09605911      -0.03342488
C        4.40997413       0.24606924      -0.43901487
H        5.45043402       0.31470230      -0.63386990
C       -0.30316382       0.02463545      -0.31899048
O        0.73994835      -0.01697566       0.42465379
O       -0.29531478       0.17194244      -1.56061287
C       -1.67529446      -0.12255591       0.40913945
O       -2.22013638       0.94422334       0.79886018
O       -2.12073046      -1.29420716       0.53392112
10
Properties=species:S:1:pos:R:3 charge=-2 charge_a=0 charge_b=-2 selection_a=1-4 selection_b=5-10 scaling=0.95 benchmark_Eint=-21.895 benchmark_unit=kcal/mol group=CH-Oa pbc="F F F"
C        3.22081885       0.16937443      -0.23060028
H        2.07974448       0.09605911      -0.03342488
C        4.40997413       0.24606924      -0.43901487
H        5.45043402       0.31470230      -0.63386990
C       -0.37759694       0.01835574      -0.29354167
O        0.66551523      -0.02325537       0.45010261
O       -0.36974790       0.16566273      -1.53516406
C       -1.74972758      -0.12883562       0.43458827
O       -2.29456949       0.93794363       0.82430899
O       -2.19516357      -1.30048687       0.55936993
10
Properties=species:S:1:pos:R:3 charge=-2 charge_a=0 charge_b=-2 selection_a=1-4 selection_b=5-10 scaling=1.0 benchmark_Eint=-22.296 benchmark_unit=kcal/mol group=CH-Oa pbc="F F F"
C        3.22081885       0.16937443      -0.23060028
H        2.07974448       0.09605911      -0.03342488
C        4.40997413       0.24606924      -0.43901487
H        5.45043402       0.31470230      -0.63386990
C       -0.45203005       0.01207603      -0.26809285
O        0.59108212      -0.02953508       0.47555142
O       -0.44418101       0.15938302      -1.50971524
C       -1.82416069      -0.13511533       0.46003708
O       -2.36900261       0.93166392       0.84975781
O       -2.26959669      -1.30676658       0.58481875
10
Properties=species:S:1:pos:R:3 charge=-2 charge_a=0 charge_b=-2 selection_a=1-4 selection_b=5-10 scaling=1.05 benchmark_Eint=-22.222 benchmark_unit=kcal/mol group=CH-Oa pbc="F F F"
C        3.22081885       0.16937443      -0.23060028
H        2.07974448       0.09605911      -0.03342488
C        4.40997413       0.24606924      -0.43901487
H        5.45043402       0.31470230      -0.63386990
C       -0.52646317       0.00579632      -0.24264404
O        0.51664900      -0.03581478       0.50100024
O       -0.51861413       0.15310331      -1.48426643
C       -1.89859381      -0.14139504       0.48548590
O       -2.44343573       0.92538422       0.87520662
O       -2.34402981      -1.31304629       0.61026756
10
Properties=species:S:1:pos:R:3 charge=-2 charge_a=0 charge_b=-2 selection_a=1-4 selection_b=5-10 scaling=1.1 benchmark_Eint=-21.821 benchmark_unit=kcal/mol group=CH-Oa pbc="F F F"
C        3.22081885       0.16937443      -0.23060028
H        2.07974448       0.09605911      -0.03342488
C        4.40997413       0.24606924      -0.43901487
H        5.45043402       0.31470230      -0.63386990
C       -0.60089629      -0.00048339      -0.21719522
O        0.44221588      -0.04209449       0.52644905
O       -0.59304725       0.14682361      -1.45881761
C       -1.97302693      -0.14767475       0.51093471
O       -2.51786885       0.91910451       0.90065544
O       -2.41846293      -1.31932600       0.63571638
10
Properties=species:S:1:pos:R:3 charge=-2 charge_a=0 charge_b=-2 selection_a=1-4 selection_b=5-10 scaling=1.25 benchmark_Eint=-19.588 benchmark_unit=kcal/mol group=CH-Oa pbc="F F F"
C        3.22081885       0.16937443      -0.23060028
H        2.07974448       0.09605911      -0.03342488
C        4.40997413       0.24606924      -0.43901487
H        5.45043402       0.31470230      -0.63386990
C       -0.82419565      -0.01932252      -0.14084878
O        0.21891653      -0.06093362       0.60279550
O       -0.81634661       0.12798448      -1.38247117
C       -2.19632629      -0.16651388       0.58728116
O       -2.74116820       0.90026538       0.97700188
O       -2.64176228      -1.33816512       0.71206282
10
Properties=species:S:1:pos:R:3 charge=-2 charge_a=0 charge_b=-2 selection_a=1-4 selection_b=5-10 scaling=1.5 benchmark_Eint=-15.173 benchmark_unit=kcal/mol group=CH-Oa pbc="F F F"
C        3.22081885       0.16937443      -0.23060028
H        2.07974448       0.09605911      -0.03342488
C        4.40997413       0.24606924      -0.43901487
H        5.45043402       0.31470230      -0.63386990
C       -1.19636124      -0.05072106      -0.01360470
O       -0.15324907      -0.09233217       0.73003957
O       -1.18851220       0.09658593      -1.25522709
C       -2.56849188      -0.19791243       0.71452523
O       -3.11333379       0.86886683       1.10424596
O       -3.01392787      -1.36956367       0.83930690
10
Properties=species:S:1:pos:R:3 charge=-2 charge_a=0 charge_b=-2 selection_a=1-4 selection_b=5-10 scaling=2.0 benchmark_Eint=-8.874 benchmark_unit=kcal/mol group=CH-Oa pbc="F F F"
C        3.22081885       0.16937443      -0.23060028
H        2.07974448       0.09605911      -0.03342488
C        4.40997413       0.24606924      -0.43901487
H        5.45043402       0.31470230      -0.63386990
C       -1.94069242      -0.11351815       0.24088345
O       -0.89758025      -0.15512926       0.98452772
O       -1.93284338       0.03378884      -1.00073894
C       -3.31282306      -0.26070952       0.96901339
O       -3.85766498       0.80606974       1.35873411
O       -3.75825906      -1.43236076       1.09379505
12
Properties=species:S:1:pos:R:3 charge=-2 charge_a=0 charge_b=-2 selection_a=1-6 selection_b=7-12 scaling=0.8 benchmark_Eint=-4.893 benchmark_unit=kcal/mol group=CH-Oa pbc="F F F"
H        0.07308624       2.68842520      -0.23013469
H        0.05130007       4.35431053      -1.12860534
H       -0.18020228       3.09757259      -3.25805641
H       -0.14562116       1.50322108      -2.23859385
C        0.01121506       3.26622971      -1.15566827
C       -0.11263686       2.59408932      -2.29462751
C       -0.00180854       0.10942905      -0.06460750
O        0.09770875       1.17691424       0.60748546
O       -0.11832175       0.03679060      -1.32247020
C        0.02122486      -1.23779480       0.72878140
O       -1.09250573      -1.68374225       1.11835327
O        1.15163619      -1.76624088       0.91306463
12
Properties=species:S:1:pos:R:3 charge=-2 charge_a=0 charge_b=-2 selection_a=1-6 selection_b=7-12 scaling=0.85 benchmark_Eint=-8.517 benchmark_unit=kcal/mol group=CH-Oa pbc="F F F"
H        0.07308624       2.68842520      -0.23013469
H        0.05130007       4.35431053      -1.12860534
H       -0.18020228       3.09757259      -3.25805641
H       -0.14562116       1.50322108      -2.23859385
C        0.01121506       3.26622971      -1.15566827
C       -0.11263686       2.59408932      -2.29462751
C       -0.00018601       0.01637060      -0.00980432
O        0.09933127       1.08385580       0.66228864
O       -0.11669923      -0.05626784      -1.26766702
C        0.02284738      -1.33085324       0.78358458
O       -1.09088320      -1.77680069       1.17315645
O        1.15325871      -1.85929932       0.96786781
12
Properties=species:S:1:pos:R:3 charge=-2 charge_a=0 charge_b=-2 selection_a=1-6 selection_b=7-12 scaling=0.9 benchmark_Eint=-10.553 benchmark_unit=kcal/mol group=CH-Oa pbc="F F F"
H        0.07308624       2.68842520      -0.23013469
H        0.05130007       4.35431053      -1.12860534
H       -0.18020228       3.09757259      -3.25805641
H       -0.14562116       1.50322108      -2.23859385
C        0.01121506       3.26622971      -1.15566827
C       -0.11263686       2.59408932      -2.29462751
C        0.00143651      -0.07668784       0.04499886
O        0.10095380       0.99079736       0.71709182
O       -0.11507671      -0.14932628      -1.21286384
C        0.02446991      -1.42391168       0.83838776
O       -1.08926068      -1.86985913       1.22795963
O        1.15488123      -1.95235776       1.02267099
12
Properties=species:S:1:pos:R:3 charge=-2 charge_a=0 charge_b=-2 selection_a=1-6 selection_b=7-12 scaling=0.95 benchmark_Eint=-11.532 benchmark_unit=kcal/mol group=CH-Oa pbc="F F F"
H        0.07308624       2.68842520      -0.23013469
H        0.05130007       4.35431053      -1.12860534
H       -0.18020228       3.09757259      -3.25805641
H       -0.14562116       1.50322108      -2.23859385
C        0.01121506       3.26622971      -1.15566827
C       -0.11263686       2.59408932      -2.29462751
C        0.00305903      -0.16974628       0.09980204
O        0.10257632       0.89773892       0.77189500
O       -0.11345418      -0.24238472      -1.15806066
C        0.02609243      -1.51697012       0.89319094
O       -1.08763816      -1.96291757       1.28276281
O        1.15650375      -2.04541620       1.07747418
12
Properties=species:S:1:pos:R:3 charge=-2 charge_a=0 charge_b=-2 selection_a=1-6 selection_b=7-12 scaling=1.0 benchmark_Eint=-11.823 benchmark_unit=kcal/mol group=CH-Oa pbc="F F F"
H        0.07308624       2.68842520      -0.23013469
H        0.05130007       4.35431053      -1.12860534
H       -0.18020228       3.09757259      -3.25805641
H       -0.14562116       1.50322108      -2.23859385
C        0.01121506       3.26622971      -1.15566827
C       -0.11263686       2.59408932      -2.29462751
C        0.00468155      -0.26280472       0.15460522
O        0.10419884       0.80468047       0.82669818
O       -0.11183166      -0.33544316      -1.10325748
C        0.02771495      -1.61002856       0.94799412
O       -1.08601564      -2.05597601       1.33756599
O        1.15812627      -2.13847464       1.13227736
12
Properties=species:S:1:pos:R:3 charge=-2 charge_a=0 charge_b=-2 selection_a=1-6 selection_b=7-12 scaling=1.05 benchmark_Eint=-11.677 benchmark_unit=kcal/mol group=CH-Oa pbc="F F F"
H        0.07308624       2.68842520      -0.23013469
H        0.05130007       4.35431053      -1.12860534
H       -0.18020228       3.09757259      -3.25805641
H       -0.14562116       1.50322108      -2.23859385
C        0.01121506       3.26622971      -1.15566827
C       -0.11263686       2.59408932      -2.29462751
C        0.00630407      -0.35586316       0.20940840
O        0.10582136       0.71162203       0.88150136
O       -0.11020914      -0.42850160      -1.04845430
C        0.02933747      -1.70308700       1.00279731
O       -1.08439312      -2.14903445       1.39236918
O        1.15974879      -2.23153309       1.18708054
12
Properties=species:S:1:pos:R:3 charge=-2 charge_a=0 charge_b=-2 selection_a=1-6 selection_b=7-12 scaling=1.1 benchmark_Eint=-11.263 benchmark_unit=kcal/mol group=CH-Oa pbc="F F F"
H        0.07308624       2.68842520      -0.23013469
H        0.05130007       4.35431053      -1.12860534
H       -0.18020228       3.09757259      -3.25805641
H       -0.14562116       1.50322108      -2.23859385
C        0.01121506       3.26622971      -1.15566827
C       -0.11263686       2.59408932      -2.29462751
C        0.00792659      -0.44892160       0.26421159
O        0.10744388       0.61856359       0.93630455
O       -0.10858662      -0.52156005      -0.99365112
C        0.03095999      -1.79614544       1.05760049
O       -1.08277060      -2.24209290       1.44717236
O        1.16137132      -2.32459153       1.24188372
12
Properties=species:S:1:pos:R:3 charge=-2 charge_a=0 charge_b=-2 selection_a=1-6 selection_b=7-12 scaling=1.25 benchmark_Eint=-9.384 benchmark_unit=kcal/mol group=CH-Oa pbc="F F F"
H        0.07308624       2.68842520      -0.23013469
H        0.05130007       4.35431053      -1.12860534
H       -0.18020228       3.09757259      -3.25805641
H       -0.14562116       1.50322108      -2.23859385
C        0.01121506       3.26622971      -1.15566827
C       -0.11263686       2.59408932      -2.29462751
C        0.01279416      -0.72809693       0.42862113
O        0.11231144       0.33938827       1.10071409
O       -0.10371906      -0.80073537      -0.82924157
C        0.03582755      -2.07532077       1.22201003
O       -1.07790304      -2.52126822       1.61158190
O        1.16623888      -2.60376685       1.40629326
12
Properties=species:S:1:pos:R:3 charge=-2 charge_a=0 charge_b=-2 selection_a=1-6 selection_b=7-12 scaling=1.5 benchmark_Eint=-6.374 benchmark_unit=kcal/mol group=CH-Oa pbc="F F F"
H        0.07308624       2.68842520      -0.23013469
H        0.05130007       4.35431053      -1.12860534
H       -0.18020228       3.09757259      -3.25805641
H       -0.14562116       1.50322108      -2.23859385
C        0.01121506       3.26622971      -1.15566827
C       -0.11263686       2.59408932      -2.29462751
C        0.02090676      -1.19338913       0.70263703
O        0.12042405      -0.12590394       1.37472999
O       -0.09560645      -1.26602758      -0.55522567
C        0.04394016      -2.54061297       1.49602593
O       -1.06979043      -2.98656043       1.88559780
O        1.17435149      -3.06905906       1.68030917
12
Properties=species:S:1:pos:R:3 charge=-2 charge_a=0 charge_b=-2 selection_a=1-6 selection_b=7-12 scaling=2.0 benchmark_Eint=-3.021 benchmark_unit=kcal/mol group=CH-Oa pbc="F F F"
H        0.07308624       2.68842520      -0.23013469
H        0.05130007       4.35431053      -1.12860534
H       -0.18020228       3.09757259      -3.25805641
H       -0.14562116       1.50322108      -2.23859385
C        0.01121506       3.26622971      -1.15566827
C       -0.11263686       2.59408932      -2.29462751
C        0.03713198      -2.12397355       1.25066884
O        0.13664926      -1.05648835       1.92276180
O       -0.07938124      -2.19661199      -0.00719386
C        0.06016537      -3.47119739       2.04405774
O       -1.05356522      -3.91714484       2.43362961
O        1.19057670      -3.99964347       2.22834098
14
Properties=species:S:1:pos:R:3 charge=-1 charge_a=0 charge_b=-1 selection_a=1-12 selection_b=13-14 scaling=0.8 benchmark_Eint=-8.551 benchmark_unit=kcal/mol group=CH-Oa pbc="F F F"
C        0.36159553       0.53246203       0.06949531
H        1.00043119       1.46469715       0.13729017
C        0.93322139      -0.73861836       0.12073986
H        2.00661742      -0.82182585       0.24257040
C        0.15647752      -1.88942973       0.01645217
H        0.62077799      -2.86802320       0.05962313
C       -1.22248559      -1.78606777      -0.14354987
H       -1.83171521      -2.67767177      -0.22481536
C       -1.81078265      -0.52560978      -0.19817546
H       -2.88406129      -0.43825784      -0.32274984
C       -1.02107242       0.61621160      -0.09247892
H       -1.48114414       1.59611755      -0.13795967
O        1.77799117       2.59793233       0.20913991
H        2.06560913       2.87367438      -0.66719536
14
Properties=species:S:1:pos:R:3 charge=-1 charge_a=0 charge_b=-1 selection_a=1-12 selection_b=13-14 scaling=0.85 benchmark_Eint=-11.493 benchmark_unit=kcal/mol group=CH-Oa pbc="F F F"
C        0.36159553       0.53246203       0.06949531
H        1.00043119       1.46469715       0.13729017
C        0.93322139      -0.73861836       0.12073986
H        2.00661742      -0.82182585       0.24257040
C        0.15647752      -1.88942973       0.01645217
H        0.62077799      -2.86802320       0.05962313
C       -1.22248559      -1.78606777      -0.14354987
H       -1.83171521      -2.67767177      -0.22481536
C       -1.81078265      -0.52560978      -0.19817546
H       -2.88406129      -0.43825784      -0.32274984
C       -1.02107242       0.61621160      -0.09247892
H       -1.48114414       1.59611755      -0.13795967
O        1.82658867       2.66875953       0.21363051
H        2.11420663       2.94450158      -0.66270475
14
Properties=species:S:1:pos:R:3 charge=-1 charge_a=0 charge_b=-1 selection_a=1-12 selection_b=13-14 scaling=0.9 benchmark_Eint=-13.296 benchmark_unit=kcal/mol group=CH-Oa pbc="F F F"
C        0.36159553       0.53246203       0.06949531
H        1.00043119       1.46469715       0.13729017
C        0.93322139      -0.73861836       0.12073986
H        2.00661742      -0.82182585       0.24257040
C        0.15647752      -1.88942973       0.01645217
H        0.62077799      -2.86802320       0.05962313
C       -1.22248559      -1.78606777      -0.14354987
H       -1.83171521      -2.67767177      -0.22481536
C       -1.81078265      -0.52560978      -0.19817546
H       -2.88406129      -0.43825784      -0.32274984
C       -1.02107242       0.61621160      -0.09247892
H       -1.48114414       1.59611755      -0.13795967
O        1.87518617       2.73958673       0.21812112
H        2.16280413       3.01532878      -0.65821414
14
Properties=species:S:1:pos:R:3 charge=-1 charge_a=0 charge_b=-1 selection_a=1-12 selection_b=13-14 scaling=0.95 benchmark_Eint=-14.281 benchmark_unit=kcal/mol group=CH-Oa pbc="F F F"
C        0.36159553       0.53246203       0.06949531
H        1.00043119       1.46469715       0.13729017
C        0.93322139      -0.73861836       0.12073986
H        2.00661742      -0.82182585       0.24257040
C        0.15647752      -1.88942973       0.01645217
H        0.62077799      -2.86802320       0.05962313
C       -1.22248559      -1.78606777      -0.14354987
H       -1.83171521      -2.67767177      -0.22481536
C       -1.81078265      -0.52560978      -0.19817546
H       -2.88406129      -0.43825784      -0.32274984
C       -1.02107242       0.61621160      -0.09247892
H       -1.48114414       1.59611755      -0.13795967
O        1.92378367       2.81041393       0.22261173
H        2.21140163       3.08615598      -0.65372353
14
Properties=species:S:1:pos:R:3 charge=-1 charge_a=0 charge_b=-1 selection_a=1-12 selection_b=13-14 scaling=1.0 benchmark_Eint=-14.687 benchmark_unit=kcal/mol group=CH-Oa pbc="F F F"
C        0.36159553       0.53246203       0.06949531
H        1.00043119       1.46469715       0.13729017
C        0.93322139      -0.73861836       0.12073986
H        2.00661742      -0.82182585       0.24257040
C        0.15647752      -1.88942973       0.01645217
H        0.62077799      -2.86802320       0.05962313
C       -1.22248559      -1.78606777      -0.14354987
H       -1.83171521      -2.67767177      -0.22481536
C       -1.81078265      -0.52560978      -0.19817546
H       -2.88406129      -0.43825784      -0.32274984
C       -1.02107242       0.61621160      -0.09247892
H       -1.48114414       1.59611755      -0.13795967
O        1.97238117       2.88124113       0.22710234
H        2.25999913       3.15698318      -0.64923293
14
Properties=species:S:1:pos:R:3 charge=-1 charge_a=0 charge_b=-1 selection_a=1-12 selection_b=13-14 scaling=1.05 benchmark_Eint=-14.685 benchmark_unit=kcal/mol group=CH-Oa pbc="F F F"
C        0.36159553       0.53246203       0.06949531
H        1.00043119       1.46469715       0.13729017
C        0.93322139      -0.73861836       0.12073986
H        2.00661742      -0.82182585       0.24257040
C        0.15647752      -1.88942973       0.01645217
H        0.62077799      -2.86802320       0.05962313
C       -1.22248559      -1.78606777      -0.14354987
H       -1.83171521      -2.67767177      -0.22481536
C       -1.81078265      -0.52560978      -0.19817546
H       -2.88406129      -0.43825784      -0.32274984
C       -1.02107242       0.61621160      -0.09247892
H       -1.48114414       1.59611755      -0.13795967
O        2.02097867       2.95206833       0.23159295
H        2.30859663       3.22781037      -0.64474232
14
Properties=species:S:1:pos:R:3 charge=-1 charge_a=0 charge_b=-1 selection_a=1-12 selection_b=13-14 scaling=1.1 benchmark_Eint=-14.402 benchmark_unit=kcal/mol group=CH-Oa pbc="F F F"
C        0.36159553       0.53246203       0.06949531
H        1.00043119       1.46469715       0.13729017
C        0.93322139      -0.73861836       0.12073986
H        2.00661742      -0.82182585       0.24257040
C        0.15647752      -1.88942973       0.01645217
H        0.62077799      -2.86802320       0.05962313
C       -1.22248559      -1.78606777      -0.14354987
H       -1.83171521      -2.67767177      -0.22481536
C       -1.81078265      -0.52560978      -0.19817546
H       -2.88406129      -0.43825784      -0.32274984
C       -1.02107242       0.61621160      -0.09247892
H       -1.48114414       1.59611755      -0.13795967
O        2.06957617       3.02289553       0.23608356
H        2.35719413       3.29863757      -0.64025171
14
Properties=species:S:1:pos:R:3 charge=-1 charge_a=0 charge_b=-1 selection_a=1-12 selection_b=13-14 scaling=1.25 benchmark_Eint=-12.697 benchmark_unit=kcal/mol group=CH-Oa pbc="F F F"
C        0.36159553       0.53246203       0.06949531
H        1.00043119       1.46469715       0.13729017
C        0.93322139      -0.73861836       0.12073986
H        2.00661742      -0.82182585       0.24257040
C        0.15647752      -1.88942973       0.01645217
H        0.62077799      -2.86802320       0.05962313
C       -1.22248559      -1.78606777      -0.14354987
H       -1.83171521      -2.67767177      -0.22481536
C       -1.81078265      -0.52560978      -0.19817546
H       -2.88406129      -0.43825784      -0.32274984
C       -1.02107242       0.61621160      -0.09247892
H       -1.48114414       1.59611755      -0.13795967
O        2.21536867       3.23537712       0.24955538
H        2.50298662       3.51111917      -0.62677988
14
Properties=species:S:1:pos:R:3 charge=-1 charge_a=0 charge_b=-1 selection_a=1-12 selection_b=13-14 scaling=1.5 benchmark_Eint=-9.329 benchmark_unit=kcal/mol group=CH-Oa pbc="F F F"
C        0.36159553       0.53246203       0.06949531
H        1.00043119       1.46469715       0.13729017
C        0.93322139      -0.73861836       0.12073986
H        2.00661742      -0.82182585       0.24257040
C        0.15647752      -1.88942973       0.01645217
H        0.62077799      -2.86802320       0.05962313
C       -1.22248559      -1.78606777      -0.14354987
H       -1.83171521      -2.67767177      -0.22481536
C       -1.81078265      -0.52560978      -0.19817546
H       -2.88406129      -0.43825784      -0.32274984
C       -1.02107242       0.61621160      -0.09247892
H       -1.48114414       1.59611755      -0.13795967
O        2.45835616       3.58951312       0.27200842
H        2.74597412       3.86525516      -0.60432684
14
Properties=species:S:1:pos:R:3 charge=-1 charge_a=0 charge_b=-1 selection_a=1-12 selection_b=13-14 scaling=2.0 benchmark_Eint=-4.796 benchmark_unit=kcal/mol group=CH-Oa pbc="F F F"
C        0.36159553       0.53246203       0.06949531
H        1.00043119       1.46469715       0.13729017
C        0.93322139      -0.73861836       0.12073986
H        2.00661742      -0.82182585       0.24257040
C        0.15647752      -1.88942973       0.01645217
H        0.62077799      -2.86802320       0.05962313
C       -1.22248559      -1.78606777      -0.14354987
H       -1.83171521      -2.67767177      -0.22481536
C       -1.81078265      -0.52560978      -0.19817546
H       -2.88406129      -0.43825784      -0.32274984
C       -1.02107242       0.61621160      -0.09247892
H       -1.48114414       1.59611755      -0.13795967
O        2.94433115       4.29778511       0.31691451
H        3.23194911       4.57352715      -0.55942076
15
Properties=species:S:1:pos:R:3 charge=-1 charge_a=0 charge_b=-1 selection_a=1-12 selection_b=13-15 scaling=0.8 benchmark_Eint=-4.047 benchmark_unit=kcal/mol group=CH-Oa pbc="F F F"
C       -0.69298974       0.16310254      -0.09706186
H       -0.15964160       1.10772692      -0.02016955
C        0.05291985      -1.00773571       0.00454453
H        1.12027186      -0.90287002       0.15417958
C       -0.57484311      -2.24501271      -0.08622200
H        0.00667788      -3.15507203      -0.00698571
C       -1.95217018      -2.32023220      -0.27912540
H       -2.44044269      -3.28405592      -0.34973430
C       -2.69991633      -1.15211131      -0.38098761
H       -3.77091688      -1.20721440      -0.53097841
C       -2.06819435       0.08590983      -0.28966328
H       -2.65227071       0.99413136      -0.36921653
N        2.28758586       1.80805285       0.32581367
O        1.13455796       2.28168528       0.16431732
O        2.38319790       0.55634321       0.33522987
15
Properties=species:S:1:pos:R:3 charge=-1 charge_a=0 charge_b=-1 selection_a=1-12 selection_b=13-15 scaling=0.85 benchmark_Eint=-6.967 benchmark_unit=kcal/mol group=CH-Oa pbc="F F F"
C       -0.69298974       0.16310254      -0.09706186
H       -0.15964160       1.10772692      -0.02016955
C        0.05291985      -1.00773571       0.00454453
H        1.12027186      -0.90287002       0.15417958
C       -0.57484311      -2.24501271      -0.08622200
H        0.00667788      -3.15507203      -0.00698571
C       -1.95217018      -2.32023220      -0.27912540
H       -2.44044269      -3.28405592      -0.34973430
C       -2.69991633      -1.15211131      -0.38098761
H       -3.77091688      -1.20721440      -0.53097841
C       -2.06819435       0.08590983      -0.28966328
H       -2.65227071       0.99413136      -0.36921653
N        2.36847333       1.88142525       0.33734410
O        1.21544543       2.35505767       0.17584775
O        2.46408537       0.62971561       0.34676030
15
Properties=species:S:1:pos:R:3 charge=-1 charge_a=0 charge_b=-1 selection_a=1-12 selection_b=13-15 scaling=0.9 benchmark_Eint=-8.611 benchmark_unit=kcal/mol group=CH-Oa pbc="F F F"
C       -0.69298974       0.16310254      -0.09706186
H       -0.15964160       1.10772692      -0.02016955
C        0.05291985      -1.00773571       0.00454453
H        1.12027186      -0.90287002       0.15417958
C       -0.57484311      -2.24501271      -0.08622200
H        0.00667788      -3.15507203      -0.00698571
C       -1.95217018      -2.32023220      -0.27912540
H       -2.44044269      -3.28405592      -0.34973430
C       -2.69991633      -1.15211131      -0.38098761
H       -3.77091688      -1.20721440      -0.53097841
C       -2.06819435       0.08590983      -0.28966328
H       -2.65227071       0.99413136      -0.36921653
N        2.44936080       1.95479765       0.34887453
O        1.29633291       2.42843007       0.18737818
O        2.54497284       0.70308800       0.35829073
15
Properties=species:S:1:pos:R:3 charge=-1 charge_a=0 charge_b=-1 selection_a=1-12 selection_b=13-15 scaling=0.95 benchmark_Eint=-9.408 benchmark_unit=kcal/mol group=CH-Oa pbc="F F F"
C       -0.69298974       0.16310254      -0.09706186
H       -0.15964160       1.10772692      -0.02016955
C        0.05291985      -1.00773571       0.00454453
H        1.12027186      -0.90287002       0.15417958
C       -0.57484311      -2.24501271      -0.08622200
H        0.00667788      -3.15507203      -0.00698571
C       -1.95217018      -2.32023220      -0.27912540
H       -2.44044269      -3.28405592      -0.34973430
C       -2.69991633      -1.15211131      -0.38098761
H       -3.77091688      -1.20721440      -0.53097841
C       -2.06819435       0.08590983      -0.28966328
H       -2.65227071       0.99413136      -0.36921653
N        2.53024827       2.02817005       0.36040496
O        1.37722038       2.50180247       0.19890860
O        2.62586032       0.77646040       0.36982116
15
Properties=species:S:1:pos:R:3 charge=-1 charge_a=0 charge_b=-1 selection_a=1-12 selection_b=13-15 scaling=1.0 benchmark_Eint=-9.653 benchmark_unit=kcal/mol group=CH-Oa pbc="F F F"
C       -0.69298974       0.16310254      -0.09706186
H       -0.15964160       1.10772692      -0.02016955
C        0.05291985      -1.00773571       0.00454453
H        1.12027186      -0.90287002       0.15417958
C       -0.57484311      -2.24501271      -0.08622200
H        0.00667788      -3.15507203      -0.00698571
C       -1.95217018      -2.32023220      -0.27912540
H       -2.44044269      -3.28405592      -0.34973430
C       -2.69991633      -1.15211131      -0.38098761
H       -3.77091688      -1.20721440      -0.53097841
C       -2.06819435       0.08590983      -0.28966328
H       -2.65227071       0.99413136      -0.36921653
N        2.61113574       2.10154244       0.37193538
O        1.45810785       2.57517487       0.21043903
O        2.70674779       0.84983280       0.38135159
15
Properties=species:S:1:pos:R:3 charge=-1 charge_a=0 charge_b=-1 selection_a=1-12 selection_b=13-15 scaling=1.05 benchmark_Eint=-9.547 benchmark_unit=kcal/mol group=CH-Oa pbc="F F F"
C       -0.69298974       0.16310254      -0.09706186
H       -0.15964160       1.10772692      -0.02016955
C        0.05291985      -1.00773571       0.00454453
H        1.12027186      -0.90287002       0.15417958
C       -0.57484311      -2.24501271      -0.08622200
H        0.00667788      -3.15507203      -0.00698571
C       -1.95217018      -2.32023220      -0.27912540
H       -2.44044269      -3.28405592      -0.34973430
C       -2.69991633      -1.15211131      -0.38098761
H       -3.77091688      -1.20721440      -0.53097841
C       -2.06819435       0.08590983      -0.28966328
H       -2.65227071       0.99413136      -0.36921653
N        2.69202322       2.17491484       0.38346581
O        1.53899532       2.64854726       0.22196946
O        2.78763526       0.92320520       0.39288202
15
Properties=species:S:1:pos:R:3 charge=-1 charge_a=0 charge_b=-1 selection_a=1-12 selection_b=13-15 scaling=1.1 benchmark_Eint=-9.227 benchmark_unit=kcal/mol group=CH-Oa pbc="F F F"
C       -0.69298974       0.16310254      -0.09706186
H       -0.15964160       1.10772692      -0.02016955
C        0.05291985      -1.00773571       0.00454453
H        1.12027186      -0.90287002       0.15417958
C       -0.57484311      -2.24501271      -0.08622200
H        0.00667788      -3.15507203      -0.00698571
C       -1.95217018      -2.32023220      -0.27912540
H       -2.44044269      -3.28405592      -0.34973430
C       -2.69991633      -1.15211131      -0.38098761
H       -3.77091688      -1.20721440      -0.53097841
C       -2.06819435       0.08590983      -0.28966328
H       -2.65227071       0.99413136      -0.36921653
N        2.77291069       2.24828724       0.39499624
O        1.61988280       2.72191966       0.23349989
O        2.86852273       0.99657759       0.40441245
15
Properties=species:S:1:pos:R:3 charge=-1 charge_a=0 charge_b=-1 selection_a=1-12 selection_b=13-15 scaling=1.25 benchmark_Eint=-7.742 benchmark_unit=kcal/mol group=CH-Oa pbc="F F F"
C       -0.69298974       0.16310254      -0.09706186
H       -0.15964160       1.10772692      -0.02016955
C        0.05291985      -1.00773571       0.00454453
H        1.12027186      -0.90287002       0.15417958
C       -0.57484311      -2.24501271      -0.08622200
H        0.00667788      -3.15507203      -0.00698571
C       -1.95217018      -2.32023220      -0.27912540
H       -2.44044269      -3.28405592      -0.34973430
C       -2.69991633      -1.15211131      -0.38098761
H       -3.77091688      -1.20721440      -0.53097841
C       -2.06819435       0.08590983      -0.28966328
H       -2.65227071       0.99413136      -0.36921653
N        3.01557311       2.46840443       0.42958753
O        1.86254521       2.94203686       0.26809118
O        3.11118515       1.21669479       0.43900373
15
Properties=species:S:1:pos:R:3 charge=-1 charge_a=0 charge_b=-1 selection_a=1-12 selection_b=13-15 scaling=1.5 benchmark_Eint=-5.323 benchmark_unit=kcal/mol group=CH-Oa pbc="F F F"
C       -0.69298974       0.16310254      -0.09706186
H       -0.15964160       1.10772692      -0.02016955
C        0.05291985      -1.00773571       0.00454453
H        1.12027186      -0.90287002       0.15417958
C       -0.57484311      -2.24501271      -0.08622200
H        0.00667788      -3.15507203      -0.00698571
C       -1.95217018      -2.32023220      -0.27912540
H       -2.44044269      -3.28405592      -0.34973430
C       -2.69991633      -1.15211131      -0.38098761
H       -3.77091688      -1.20721440      -0.53097841
C       -2.06819435       0.08590983      -0.28966328
H       -2.65227071       0.99413136      -0.36921653
N        3.42001047       2.83526642       0.48723967
O        2.26698257       3.30889884       0.32574332
O        3.51562251       1.58355677       0.49665588
15
Properties=species:S:1:pos:R:3 charge=-1 charge_a=0 charge_b=-1 selection_a=1-12 selection_b=13-15 scaling=2.0 benchmark_Eint=-2.571 benchmark_unit=kcal/mol group=CH-Oa pbc="F F F"
C       -0.69298974       0.16310254      -0.09706186
H       -0.15964160       1.10772692      -0.02016955
C        0.05291985      -1.00773571       0.00454453
H        1.12027186      -0.90287002       0.15417958
C       -0.57484311      -2.24501271      -0.08622200
H        0.00667788      -3.15507203      -0.00698571
C       -1.95217018      -2.32023220      -0.27912540
H       -2.44044269      -3.28405592      -0.34973430
C       -2.69991633      -1.15211131      -0.38098761
H       -3.77091688      -1.20721440      -0.53097841
C       -2.06819435       0.08590983      -0.28966328
H       -2.65227071       0.99413136      -0.36921653
N        4.22888519       3.56899040       0.60254396
O        3.07585730       4.04262282       0.44104761
O        4.32449723       2.31728075       0.61196017
8
Properties=species:S:1:pos:R:3 charge=-1 charge_a=0 charge_b=-1 selection_a=1-6 selection_b=7-8 scaling=0.8 benchmark_Eint=-4.462 benchmark_unit=kcal/mol group=CH-Oa pbc="F F F"
H        0.00202720      -0.02150146       0.39737349
H        0.09311971       1.85996941       0.18776167
H        0.09122643       1.68400200      -2.25245286
H        0.00630250      -0.15074301      -2.11537748
C        0.04893846       0.87657056      -0.27974492
C        0.04942658       0.80880688      -1.60870763
O       -0.05752685      -1.07418587       1.34267062
H       -0.19971869      -1.95123073       0.97205699
8
Properties=species:S:1:pos:R:3 charge=-1 charge_a=0 charge_b=-1 selection_a=1-6 selection_b=7-8 scaling=0.85 benchmark_Eint=-7.278 benchmark_unit=kcal/mol group=CH-Oa pbc="F F F"
H        0.00202720      -0.02150146       0.39737349
H        0.09311971       1.85996941       0.18776167
H        0.09122643       1.68400200      -2.25245286
H        0.00630250      -0.15074301      -2.11537748
C        0.04893846       0.87657056      -0.27974492
C        0.04942658       0.80880688      -1.60870763
O       -0.06124897      -1.13997864       1.40175169
H       -0.20344082      -2.01702350       1.03113806
8
Properties=species:S:1:pos:R:3 charge=-1 charge_a=0 charge_b=-1 selection_a=1-6 selection_b=7-8 scaling=0.9 benchmark_Eint=-9.03 benchmark_unit=kcal/mol group=CH-Oa pbc="F F F"
H        0.00202720      -0.02150146       0.39737349
H        0.09311971       1.85996941       0.18776167
H        0.09122643       1.68400200      -2.25245286
H        0.00630250      -0.15074301      -2.11537748
C        0.04893846       0.87657056      -0.27974492
C        0.04942658       0.80880688      -1.60870763
O       -0.06497110      -1.20577142       1.46083276
H       -0.20716295      -2.08281628       1.09021913
8
Properties=species:S:1:pos:R:3 charge=-1 charge_a=0 charge_b=-1 selection_a=1-6 selection_b=7-8 scaling=0.95 benchmark_Eint=-10.023 benchmark_unit=kcal/mol group=CH-Oa pbc="F F F"
H        0.00202720      -0.02150146       0.39737349
H        0.09311971       1.85996941       0.18776167
H        0.09122643       1.68400200      -2.25245286
H        0.00630250      -0.15074301      -2.11537748
C        0.04893846       0.87657056      -0.27974492
C        0.04942658       0.80880688      -1.60870763
O       -0.06869323      -1.27156420       1.51991383
H       -0.21088508      -2.14860905       1.14930020
8
Properties=species:S:1:pos:R:3 charge=-1 charge_a=0 charge_b=-1 selection_a=1-6 selection_b=7-8 scaling=1.0 benchmark_Eint=-10.479 benchmark_unit=kcal/mol group=CH-Oa pbc="F F F"
H        0.00202720      -0.02150146       0.39737349
H        0.09311971       1.85996941       0.18776167
H        0.09122643       1.68400200      -2.25245286
H        0.00630250      -0.15074301      -2.11537748
C        0.04893846       0.87657056      -0.27974492
C        0.04942658       0.80880688      -1.60870763
O       -0.07241536      -1.33735697       1.57899490
H       -0.21460720      -2.21440183       1.20838128
8
Properties=species:S:1:pos:R:3 charge=-1 charge_a=0 charge_b=-1 selection_a=1-6 selection_b=7-8 scaling=1.05 benchmark_Eint=-10.561 benchmark_unit=kcal/mol group=CH-Oa pbc="F F F"
H        0.00202720      -0.02150146       0.39737349
H        0.09311971       1.85996941       0.18776167
H        0.09122643       1.68400200      -2.25245286
H        0.00630250      -0.15074301      -2.11537748
C        0.04893846       0.87657056      -0.27974492
C        0.04942658       0.80880688      -1.60870763
O       -0.07613749      -1.40314974       1.63807597
H       -0.21832933      -2.28019460       1.26746235
8
Properties=species:S:1:pos:R:3 charge=-1 charge_a=0 charge_b=-1 selection_a=1-6 selection_b=7-8 scaling=1.1 benchmark_Eint=-10.388 benchmark_unit=kcal/mol group=CH-Oa pbc="F F F"
H        0.00202720      -0.02150146       0.39737349
H        0.09311971       1.85996941       0.18776167
H        0.09122643       1.68400200      -2.25245286
H        0.00630250      -0.15074301      -2.11537748
C        0.04893846       0.87657056      -0.27974492
C        0.04942658       0.80880688      -1.60870763
O       -0.07985961      -1.46894252       1.69715704
H       -0.22205146      -2.34598738       1.32654342
8
Properties=species:S:1:pos:R:3 charge=-1 charge_a=0 charge_b=-1 selection_a=1-6 selection_b=7-8 scaling=1.25 benchmark_Eint=-9.095 benchmark_unit=kcal/mol group=CH-Oa pbc="F F F"
H        0.00202720      -0.02150146       0.39737349
H        0.09311971       1.85996941       0.18776167
H        0.09122643       1.68400200      -2.25245286
H        0.00630250      -0.15074301      -2.11537748
C        0.04893846       0.87657056      -0.27974492
C        0.04942658       0.80880688      -1.60870763
O       -0.09102600      -1.66632085       1.87440025
H       -0.23321784      -2.54336571       1.50378663
8
Properties=species:S:1:pos:R:3 charge=-1 charge_a=0 charge_b=-1 selection_a=1-6 selection_b=7-8 scaling=1.5 benchmark_Eint=-6.479 benchmark_unit=kcal/mol group=CH-Oa pbc="F F F"
H        0.00202720      -0.02150146       0.39737349
H        0.09311971       1.85996941       0.18776167
H        0.09122643       1.68400200      -2.25245286
H        0.00630250      -0.15074301      -2.11537748
C        0.04893846       0.87657056      -0.27974492
C        0.04942658       0.80880688      -1.60870763
O       -0.10963664      -1.99528472       2.16980561
H       -0.25182848      -2.87232958       1.79919198
8
Properties=species:S:1:pos:R:3 charge=-1 charge_a=0 charge_b=-1 selection_a=1-6 selection_b=7-8 scaling=2.0 benchmark_Eint=-3.096 benchmark_unit=kcal/mol group=CH-Oa pbc="F F F"
H        0.00202720      -0.02150146       0.39737349
H        0.09311971       1.85996941       0.18776167
H        0.09122643       1.68400200      -2.25245286
H        0.00630250      -0.15074301      -2.11537748
C        0.04893846       0.87657056      -0.27974492
C        0.04942658       0.80880688      -1.60870763
O       -0.14685792      -2.65321248       2.76061631
H       -0.28904977      -3.53025734       2.39000269
9
Properties=species:S:1:pos:R:3 charge=-1 charge_a=0 charge_b=-1 selection_a=1-6 selection_b=7-9 scaling=0.8 benchmark_Eint=-1.316 benchmark_unit=kcal/mol group=CH-Oa pbc="F F F"
H        0.04734179       0.80908279      -0.75265217
H       -0.37217755       2.56557524      -0.35022258
H        0.09459722       3.25183412      -2.66177324
H        0.51740084       1.51010773      -3.08735026
C       -0.05239452       1.84048245      -1.09001318
C        0.19710917       2.22230692      -2.33624186
N       -0.17976356      -0.40676610       0.99468378
O        0.17810839      -0.76902247      -0.15943736
O       -0.24139891      -1.30115770       1.86442473
9
Properties=species:S:1:pos:R:3 charge=-1 charge_a=0 charge_b=-1 selection_a=1-6 selection_b=7-9 scaling=0.85 benchmark_Eint=-3.348 benchmark_unit=kcal/mol group=CH-Oa pbc="F F F"
H        0.04734179       0.80908279      -0.75265217
H       -0.37217755       2.56557524      -0.35022258
H        0.09459722       3.25183412      -2.66177324
H        0.51740084       1.51010773      -3.08735026
C       -0.05239452       1.84048245      -1.09001318
C        0.19710917       2.22230692      -2.33624186
N       -0.17159065      -0.50539768       1.03175970
O        0.18628130      -0.86765405      -0.12236143
O       -0.23322600      -1.39978928       1.90150065
9
Properties=species:S:1:pos:R:3 charge=-1 charge_a=0 charge_b=-1 selection_a=1-6 selection_b=7-9 scaling=0.9 benchmark_Eint=-4.543 benchmark_unit=kcal/mol group=CH-Oa pbc="F F F"
H        0.04734179       0.80908279      -0.75265217
H       -0.37217755       2.56557524      -0.35022258
H        0.09459722       3.25183412      -2.66177324
H        0.51740084       1.51010773      -3.08735026
C       -0.05239452       1.84048245      -1.09001318
C        0.19710917       2.22230692      -2.33624186
N       -0.16341774      -0.60402926       1.06883563
O        0.19445421      -0.96628563      -0.08528551
O       -0.22505309      -1.49842086       1.93857658
9
Properties=species:S:1:pos:R:3 charge=-1 charge_a=0 charge_b=-1 selection_a=1-6 selection_b=7-9 scaling=0.95 benchmark_Eint=-5.171 benchmark_unit=kcal/mol group=CH-Oa pbc="F F F"
H        0.04734179       0.80908279      -0.75265217
H       -0.37217755       2.56557524      -0.35022258
H        0.09459722       3.25183412      -2.66177324
H        0.51740084       1.51010773      -3.08735026
C       -0.05239452       1.84048245      -1.09001318
C        0.19710917       2.22230692      -2.33624186
N       -0.15524483      -0.70266084       1.10591155
O        0.20262712      -1.06491720      -0.04820958
O       -0.21688018      -1.59705244       1.97565250
9
Properties=species:S:1:pos:R:3 charge=-1 charge_a=0 charge_b=-1 selection_a=1-6 selection_b=7-9 scaling=1.0 benchmark_Eint=-5.419 benchmark_unit=kcal/mol group=CH-Oa pbc="F F F"
H        0.04734179       0.80908279      -0.75265217
H       -0.37217755       2.56557524      -0.35022258
H        0.09459722       3.25183412      -2.66177324
H        0.51740084       1.51010773      -3.08735026
C       -0.05239452       1.84048245      -1.09001318
C        0.19710917       2.22230692      -2.33624186
N       -0.14707192      -0.80129242       1.14298748
O        0.21080004      -1.16354878      -0.01113365
O       -0.20870726      -1.69568402       2.01272843
9
Properties=species:S:1:pos:R:3 charge=-1 charge_a=0 charge_b=-1 selection_a=1-6 selection_b=7-9 scaling=1.05 benchmark_Eint=-5.421 benchmark_unit=kcal/mol group=CH-Oa pbc="F F F"
H        0.04734179       0.80908279      -0.75265217
H       -0.37217755       2.56557524      -0.35022258
H        0.09459722       3.25183412      -2.66177324
H        0.51740084       1.51010773      -3.08735026
C       -0.05239452       1.84048245      -1.09001318
C        0.19710917       2.22230692      -2.33624186
N       -0.13889900      -0.89992400       1.18006341
O        0.21897295      -1.26218036       0.02594227
O       -0.20053435      -1.79431560       2.04980436
9
Properties=species:S:1:pos:R:3 charge=-1 charge_a=0 charge_b=-1 selection_a=1-6 selection_b=7-9 scaling=1.1 benchmark_Eint=-5.269 benchmark_unit=kcal/mol group=CH-Oa pbc="F F F"
H        0.04734179       0.80908279      -0.75265217
H       -0.37217755       2.56557524      -0.35022258
H        0.09459722       3.25183412      -2.66177324
H        0.51740084       1.51010773      -3.08735026
C       -0.05239452       1.84048245      -1.09001318
C        0.19710917       2.22230692      -2.33624186
N       -0.13072609      -0.99855558       1.21713933
O        0.22714586      -1.36081194       0.06301820
O       -0.19236144      -1.89294718       2.08688028
9
Properties=species:S:1:pos:R:3 charge=-1 charge_a=0 charge_b=-1 selection_a=1-6 selection_b=7-9 scaling=1.25 benchmark_Eint=-4.412 benchmark_unit=kcal/mol group=CH-Oa pbc="F F F"
H        0.04734179       0.80908279      -0.75265217
H       -0.37217755       2.56557524      -0.35022258
H        0.09459722       3.25183412      -2.66177324
H        0.51740084       1.51010773      -3.08735026
C       -0.05239452       1.84048245      -1.09001318
C        0.19710917       2.22230692      -2.33624186
N       -0.10620735      -1.29445031       1.32836711
O        0.25166460      -1.65670668       0.17424597
O       -0.16784270      -2.18884191       2.19810806
9
Properties=species:S:1:pos:R:3 charge=-1 charge_a=0 charge_b=-1 selection_a=1-6 selection_b=7-9 scaling=1.5 benchmark_Eint=-2.949 benchmark_unit=kcal/mol group=CH-Oa pbc="F F F"
H        0.04734179       0.80908279      -0.75265217
H       -0.37217755       2.56557524      -0.35022258
H        0.09459722       3.25183412      -2.66177324
H        0.51740084       1.51010773      -3.08735026
C       -0.05239452       1.84048245      -1.09001318
C        0.19710917       2.22230692      -2.33624186
N       -0.06534279      -1.78760821       1.51374674
O        0.29252916      -2.14986457       0.35962560
O       -0.12697814      -2.68199981       2.38348769
9
Properties=species:S:1:pos:R:3 charge=-1 charge_a=0 charge_b=-1 selection_a=1-6 selection_b=7-9 scaling=2.0 benchmark_Eint=-1.346 benchmark_unit=kcal/mol group=CH-Oa pbc="F F F"
H        0.04734179       0.80908279      -0.75265217
H       -0.37217755       2.56557524      -0.35022258
H        0.09459722       3.25183412      -2.66177324
H        0.51740084       1.51010773      -3.08735026
C       -0.05239452       1.84048245      -1.09001318
C        0.19710917       2.22230692      -2.33624186
N        0.01638633      -2.77392399       1.88450600
O        0.37425828      -3.13618036       0.73038486
O       -0.04524902      -3.66831559       2.75424695
11
Properties=species:S:1:pos:R:3 charge=-1 charge_a=0 charge_b=-1 selection_a=1-4 selection_b=5-11 scaling=0.8 benchmark_Eint=-7.159 benchmark_unit=kcal/mol group=CH-Oa pbc="F F F"
C        2.40443469      -0.24171855      -0.78725451
H        1.40044110      -0.26369793      -0.33534394
C        3.50258464      -0.22233549      -1.27684249
H        4.46853703      -0.19981229      -1.71298964
C       -2.08302371      -0.22744440       1.12349797
C       -0.91037895       0.18986543       0.19886264
O        0.15986924      -0.45348502       0.38697521
O       -1.12601938       1.09874771      -0.62406574
H       -1.79019987      -0.09410122       2.16688853
H       -2.29774501      -1.28888345       0.98419131
H       -2.97900876       0.35681709       0.91791144
11
Properties=species:S:1:pos:R:3 charge=-1 charge_a=0 charge_b=-1 selection_a=1-4 selection_b=5-11 scaling=0.85 benchmark_Eint=-9.832 benchmark_unit=kcal/mol group=CH-Oa pbc="F F F"
C        2.40443469      -0.24171855      -0.78725451
H        1.40044110      -0.26369793      -0.33534394
C        3.50258464      -0.22233549      -1.27684249
H        4.46853703      -0.19981229      -1.71298964
C       -2.16055945      -0.23930609       1.16864292
C       -0.98791469       0.17800373       0.24400759
O        0.08233350      -0.46534672       0.43212016
O       -1.20355513       1.08688602      -0.57892080
H       -1.86773561      -0.10596291       2.21203348
H       -2.37528075      -1.30074514       1.02933626
H       -3.05654451       0.34495540       0.96305639
11
Properties=species:S:1:pos:R:3 charge=-1 charge_a=0 charge_b=-1 selection_a=1-4 selection_b=5-11 scaling=0.9 benchmark_Eint=-11.419 benchmark_unit=kcal/mol group=CH-Oa pbc="F F F"
C        2.40443469      -0.24171855      -0.78725451
H        1.40044110      -0.26369793      -0.33534394
C        3.50258464      -0.22233549      -1.27684249
H        4.46853703      -0.19981229      -1.71298964
C       -2.23809519      -0.25116779       1.21378786
C       -1.06545043       0.16614204       0.28915253
O        0.00479775      -0.47720841       0.47726511
O       -1.28109087       1.07502433      -0.53377585
H       -1.94527135      -0.11782461       2.25717843
H       -2.45281649      -1.31260683       1.07448120
H       -3.13408025       0.33309371       1.00820134
11
Properties=species:S:1:pos:R:3 charge=-1 charge_a=0 charge_b=-1 selection_a=1-4 selection_b=5-11 scaling=0.95 benchmark_Eint=-12.244 benchmark_unit=kcal/mol group=CH-Oa pbc="F F F"
C        2.40443469      -0.24171855      -0.78725451
H        1.40044110      -0.26369793      -0.33534394
C        3.50258464      -0.22233549      -1.27684249
H        4.46853703      -0.19981229      -1.71298964
C       -2.31563093      -0.26302948       1.25893281
C       -1.14298617       0.15428034       0.33429748
O       -0.07273799      -0.48907010       0.52241006
O       -1.35862661       1.06316263      -0.48863090
H       -2.02280709      -0.12968630       2.30232337
H       -2.53035223      -1.32446853       1.11962615
H       -3.21161599       0.32123201       1.05334629
11
Properties=species:S:1:pos:R:3 charge=-1 charge_a=0 charge_b=-1 selection_a=1-4 selection_b=5-11 scaling=1.0 benchmark_Eint=-12.541 benchmark_unit=kcal/mol group=CH-Oa pbc="F F F"
C        2.40443469      -0.24171855      -0.78725451
H        1.40044110      -0.26369793      -0.33534394
C        3.50258464      -0.22233549      -1.27684249
H        4.46853703      -0.19981229      -1.71298964
C       -2.39316667      -0.27489117       1.30407776
C       -1.22052191       0.14241865       0.37944243
O       -0.15027373      -0.50093179       0.56755500
O       -1.43616235       1.05130094      -0.44348595
H       -2.10034283      -0.14154799       2.34746832
H       -2.60788797      -1.33633022       1.16477110
H       -3.28915173       0.30937032       1.09849123
11
Properties=species:S:1:pos:R:3 charge=-1 charge_a=0 charge_b=-1 selection_a=1-4 selection_b=5-11 scaling=1.05 benchmark_Eint=-12.479 benchmark_unit=kcal/mol group=CH-Oa pbc="F F F"
C        2.40443469      -0.24171855      -0.78725451
H        1.40044110      -0.26369793      -0.33534394
C        3.50258464      -0.22233549      -1.27684249
H        4.46853703      -0.19981229      -1.71298964
C       -2.47070241      -0.28675287       1.34922271
C       -1.29805766       0.13055696       0.42458737
O       -0.22780947      -0.51279349       0.61269995
O       -1.51369809       1.03943925      -0.39834101
H       -2.17787857      -0.15340969       2.39261327
H       -2.68542371      -1.34819191       1.20991604
H       -3.36668747       0.29750863       1.14363618
11
Properties=species:S:1:pos:R:3 charge=-1 charge_a=0 charge_b=-1 selection_a=1-4 selection_b=5-11 scaling=1.1 benchmark_Eint=-12.179 benchmark_unit=kcal/mol group=CH-Oa pbc="F F F"
C        2.40443469      -0.24171855      -0.78725451
H        1.40044110      -0.26369793      -0.33534394
C        3.50258464      -0.22233549      -1.27684249
H        4.46853703      -0.19981229      -1.71298964
C       -2.54823815      -0.29861456       1.39436765
C       -1.37559340       0.11869526       0.46973232
O       -0.30534521      -0.52465518       0.65784490
O       -1.59123383       1.02757755      -0.35319606
H       -2.25541432      -0.16527138       2.43775822
H       -2.76295945      -1.36005361       1.25506099
H       -3.44422321       0.28564693       1.18878113
11
Properties=species:S:1:pos:R:3 charge=-1 charge_a=0 charge_b=-1 selection_a=1-4 selection_b=5-11 scaling=1.25 benchmark_Eint=-10.602 benchmark_unit=kcal/mol group=CH-Oa pbc="F F F"
C        2.40443469      -0.24171855      -0.78725451
H        1.40044110      -0.26369793      -0.33534394
C        3.50258464      -0.22233549      -1.27684249
H        4.46853703      -0.19981229      -1.71298964
C       -2.78084538      -0.33419964       1.52980249
C       -1.60820062       0.08311018       0.60516716
O       -0.53795243      -0.56024026       0.79327974
O       -1.82384106       0.99199247      -0.21776122
H       -2.48802154      -0.20085646       2.57319306
H       -2.99556668      -1.39563869       1.39049583
H       -3.67683044       0.25006185       1.32421597
11
Properties=species:S:1:pos:R:3 charge=-1 charge_a=0 charge_b=-1 selection_a=1-4 selection_b=5-11 scaling=1.5 benchmark_Eint=-7.737 benchmark_unit=kcal/mol group=CH-Oa pbc="F F F"
C        2.40443469      -0.24171855      -0.78725451
H        1.40044110      -0.26369793      -0.33534394
C        3.50258464      -0.22233549      -1.27684249
H        4.46853703      -0.19981229      -1.71298964
C       -3.16852409      -0.39350811       1.75552723
C       -1.99587933       0.02380172       0.83089190
O       -0.92563114      -0.61954873       1.01900447
O       -2.21151976       0.93268400       0.00796351
H       -2.87570025      -0.26016493       2.79891779
H       -3.38324538      -1.45494716       1.61622057
H       -4.06450914       0.19075338       1.54994070
11
Properties=species:S:1:pos:R:3 charge=-1 charge_a=0 charge_b=-1 selection_a=1-4 selection_b=5-11 scaling=2.0 benchmark_Eint=-4.12 benchmark_unit=kcal/mol group=CH-Oa pbc="F F F"
C        2.40443469      -0.24171855      -0.78725451
H        1.40044110      -0.26369793      -0.33534394
C        3.50258464      -0.22233549      -1.27684249
H        4.46853703      -0.19981229      -1.71298964
C       -3.94388150      -0.51212504       2.20697670
C       -2.77123674      -0.09481522       1.28234137
O       -1.70098855      -0.73816566       1.47045394
O       -2.98687718       0.81406707       0.45941299
H       -3.65105766      -0.37878186       3.25036726
H       -4.15860280      -1.57356409       2.06767004
H       -4.83986656       0.07213645       2.00139017
8
Properties=species:S:1:pos:R:3 charge=-1 charge_a=0 charge_b=-1 selection_a=1-4 selection_b=5-8 scaling=0.8 benchmark_Eint=-5.442 benchmark_unit=kcal/mol group=CH-Oa pbc="F F F"
C        2.44649829      -0.22442125      -0.20915387
H        1.36849489      -0.14452888      -0.32311555
C        3.63884792      -0.31435827      -0.10071247
H        4.69069534      -0.39294409       0.00424585
N       -0.91278085       0.09375001       0.18585573
O       -0.11380570      -0.06307913      -0.78410343
O       -0.45936704       0.16355891       1.35055277
O       -2.13880644       0.17660963      -0.02995897
8
Properties=species:S:1:pos:R:3 charge=-1 charge_a=0 charge_b=-1 selection_a=1-4 selection_b=5-8 scaling=0.85 benchmark_Eint=-7.715 benchmark_unit=kcal/mol group=CH-Oa pbc="F F F"
C        2.44649829      -0.22442125      -0.20915387
H        1.36849489      -0.14452888      -0.32311555
C        3.63884792      -0.31435827      -0.10071247
H        4.69069534      -0.39294409       0.00424585
N       -1.00542464       0.09884062       0.15704399
O       -0.20644948      -0.05798852      -0.81291518
O       -0.55201083       0.16864952       1.32174103
O       -2.23145023       0.18170024      -0.05877071
8
Properties=species:S:1:pos:R:3 charge=-1 charge_a=0 charge_b=-1 selection_a=1-4 selection_b=5-8 scaling=0.9 benchmark_Eint=-9.042 benchmark_unit=kcal/mol group=CH-Oa pbc="F F F"
C        2.44649829      -0.22442125      -0.20915387
H        1.36849489      -0.14452888      -0.32311555
C        3.63884792      -0.31435827      -0.10071247
H        4.69069534      -0.39294409       0.00424585
N       -1.09806842       0.10393123       0.12823225
O       -0.29909327      -0.05289791      -0.84172692
O       -0.64465462       0.17374013       1.29292928
O       -2.32409402       0.18679085      -0.08758246
8
Properties=species:S:1:pos:R:3 charge=-1 charge_a=0 charge_b=-1 selection_a=1-4 selection_b=5-8 scaling=0.95 benchmark_Eint=-9.716 benchmark_unit=kcal/mol group=CH-Oa pbc="F F F"
C        2.44649829      -0.22442125      -0.20915387
H        1.36849489      -0.14452888      -0.32311555
C        3.63884792      -0.31435827      -0.10071247
H        4.69069534      -0.39294409       0.00424585
N       -1.19071221       0.10902183       0.09942050
O       -0.39173706      -0.04780730      -0.87053866
O       -0.73729840       0.17883074       1.26411754
O       -2.41673780       0.19188146      -0.11639420
8
Properties=species:S:1:pos:R:3 charge=-1 charge_a=0 charge_b=-1 selection_a=1-4 selection_b=5-8 scaling=1.0 benchmark_Eint=-9.943 benchmark_unit=kcal/mol group=CH-Oa pbc="F F F"
C        2.44649829      -0.22442125      -0.20915387
H        1.36849489      -0.14452888      -0.32311555
C        3.63884792      -0.31435827      -0.10071247
H        4.69069534      -0.39294409       0.00424585
N       -1.28335600       0.11411245       0.07060876
O       -0.48438085      -0.04271669      -0.89935040
O       -0.82994219       0.18392135       1.23530580
O       -2.50938159       0.19697207      -0.14520594
8
Properties=species:S:1:pos:R:3 charge=-1 charge_a=0 charge_b=-1 selection_a=1-4 selection_b=5-8 scaling=1.05 benchmark_Eint=-9.875 benchmark_unit=kcal/mol group=CH-Oa pbc="F F F"
C        2.44649829      -0.22442125      -0.20915387
H        1.36849489      -0.14452888      -0.32311555
C        3.63884792      -0.31435827      -0.10071247
H        4.69069534      -0.39294409       0.00424585
N       -1.37599978       0.11920306       0.04179702
O       -0.57702463      -0.03762608      -0.92816215
O       -0.92258598       0.18901196       1.20649406
O       -2.60202538       0.20206268      -0.17401769
8
Properties=species:S:1:pos:R:3 charge=-1 charge_a=0 charge_b=-1 selection_a=1-4 selection_b=5-8 scaling=1.1 benchmark_Eint=-9.614 benchmark_unit=kcal/mol group=CH-Oa pbc="F F F"
C        2.44649829      -0.22442125      -0.20915387
H        1.36849489      -0.14452888      -0.32311555
C        3.63884792      -0.31435827      -0.10071247
H        4.69069534      -0.39294409       0.00424585
N       -1.46864357       0.12429366       0.01298528
O       -0.66966842      -0.03253547      -0.95697389
O       -1.01522976       0.19410257       1.17768231
O       -2.69466917       0.20715329      -0.20282943
8
Properties=species:S:1:pos:R:3 charge=-1 charge_a=0 charge_b=-1 selection_a=1-4 selection_b=5-8 scaling=1.25 benchmark_Eint=-8.31 benchmark_unit=kcal/mol group=CH-Oa pbc="F F F"
C        2.44649829      -0.22442125      -0.20915387
H        1.36849489      -0.14452888      -0.32311555
C        3.63884792      -0.31435827      -0.10071247
H        4.69069534      -0.39294409       0.00424585
N       -1.74657493       0.13956549      -0.07344995
O       -0.94759978      -0.01726365      -1.04340912
O       -1.29316113       0.20937440       1.09124709
O       -2.97260053       0.22242512      -0.28926465
8
Properties=species:S:1:pos:R:3 charge=-1 charge_a=0 charge_b=-1 selection_a=1-4 selection_b=5-8 scaling=1.5 benchmark_Eint=-6.025 benchmark_unit=kcal/mol group=CH-Oa pbc="F F F"
C        2.44649829      -0.22442125      -0.20915387
H        1.36849489      -0.14452888      -0.32311555
C        3.63884792      -0.31435827      -0.10071247
H        4.69069534      -0.39294409       0.00424585
N       -2.20979387       0.16501854      -0.21750866
O       -1.41081872       0.00818940      -1.18746783
O       -1.75638006       0.23482745       0.94718837
O       -3.43581946       0.24787816      -0.43332337
8
Properties=species:S:1:pos:R:3 charge=-1 charge_a=0 charge_b=-1 selection_a=1-4 selection_b=5-8 scaling=2.0 benchmark_Eint=-3.21 benchmark_unit=kcal/mol group=CH-Oa pbc="F F F"
C        2.44649829      -0.22442125      -0.20915387
H        1.36849489      -0.14452888      -0.32311555
C        3.63884792      -0.31435827      -0.10071247
H        4.69069534      -0.39294409       0.00424585
N       -3.13623174       0.21592464      -0.50562609
O       -2.33725659       0.05909550      -1.47558525
O       -2.68281793       0.28573354       0.65907095
O       -4.36225733       0.29878426      -0.72144079
12
Properties=species:S:1:pos:R:3 charge=-1 charge_a=0 charge_b=-1 selection_a=1-5 selection_b=6-12 scaling=0.8 benchmark_Eint=-0.872 benchmark_unit=kcal/mol group=CH-Oa pbc="F F F"
C       -0.02630520      -3.24100398      -0.00265987
H       -0.26213856      -2.17430697      -0.00019384
H        0.55846849      -3.48813215       0.88329832
H        0.55781677      -3.48400988      -0.89017301
H       -0.94367231      -3.83156296      -0.00370481
C       -0.17583490       1.84769832      -0.00087965
C        0.17823384       0.33135218       0.00021754
O       -0.81116157      -0.44166216       0.00232875
O        1.39439150       0.04024586      -0.00125151
H       -0.78202439       2.07922609      -0.87953460
H        0.71923300       2.46956616      -0.00135342
H       -0.78229201       2.08068488       0.87719148
12
Properties=species:S:1:pos:R:3 charge=-1 charge_a=0 charge_b=-1 selection_a=1-5 selection_b=6-12 scaling=0.85 benchmark_Eint=-2.243 benchmark_unit=kcal/mol group=CH-Oa pbc="F F F"
C       -0.02630520      -3.24100398      -0.00265987
H       -0.26213856      -2.17430697      -0.00019384
H        0.55846849      -3.48813215       0.88329832
H        0.55781677      -3.48400988      -0.89017301
H       -0.94367231      -3.83156296      -0.00370481
C       -0.21014883       1.95598862      -0.00072199
C        0.14391990       0.43964248       0.00037520
O       -0.84547551      -0.33337186       0.00248641
O        1.36007756       0.14853616      -0.00109385
H       -0.81633833       2.18751639      -0.87937694
H        0.68491906       2.57785646      -0.00119576
H       -0.81660595       2.18897518       0.87734915
12
Properties=species:S:1:pos:R:3 charge=-1 charge_a=0 charge_b=-1 selection_a=1-5 selection_b=6-12 scaling=0.9 benchmark_Eint=-3.015 benchmark_unit=kcal/mol group=CH-Oa pbc="F F F"
C       -0.02630520      -3.24100398      -0.00265987
H       -0.26213856      -2.17430697      -0.00019384
H        0.55846849      -3.48813215       0.88329832
H        0.55781677      -3.48400988      -0.89017301
H       -0.94367231      -3.83156296      -0.00370481
C       -0.24446277       2.06427892      -0.00056433
C        0.10960596       0.54793278       0.00053286
O       -0.87978945      -0.22508156       0.00264408
O        1.32576363       0.25682646      -0.00093618
H       -0.85065227       2.29580669      -0.87921927
H        0.65060512       2.68614676      -0.00103810
H       -0.85091989       2.29726548       0.87750681
12
Properties=species:S:1:pos:R:3 charge=-1 charge_a=0 charge_b=-1 selection_a=1-5 selection_b=6-12 scaling=0.95 benchmark_Eint=-3.39 benchmark_unit=kcal/mol group=CH-Oa pbc="F F F"
C       -0.02630520      -3.24100398      -0.00265987
H       -0.26213856      -2.17430697      -0.00019384
H        0.55846849      -3.48813215       0.88329832
H        0.55781677      -3.48400988      -0.89017301
H       -0.94367231      -3.83156296      -0.00370481
C       -0.27877671       2.17256922      -0.00040667
C        0.07529202       0.65622308       0.00069052
O       -0.91410339      -0.11679126       0.00280174
O        1.29144969       0.36511676      -0.00077852
H       -0.88496621       2.40409699      -0.87906161
H        0.61629118       2.79443706      -0.00088044
H       -0.88523383       2.40555578       0.87766447
12
Properties=species:S:1:pos:R:3 charge=-1 charge_a=0 charge_b=-1 selection_a=1-5 selection_b=6-12 scaling=1.0 benchmark_Eint=-3.509 benchmark_unit=kcal/mol group=CH-Oa pbc="F F F"
C       -0.02630520      -3.24100398      -0.00265987
H       -0.26213856      -2.17430697      -0.00019384
H        0.55846849      -3.48813215       0.88329832
H        0.55781677      -3.48400988      -0.89017301
H       -0.94367231      -3.83156296      -0.00370481
C       -0.31309065       2.28085952      -0.00024901
C        0.04097808       0.76451338       0.00084818
O       -0.94841732      -0.00850096       0.00295940
O        1.25713575       0.47340706      -0.00062086
H       -0.91928014       2.51238729      -0.87890395
H        0.58197724       2.90272736      -0.00072278
H       -0.91954777       2.51384608       0.87782213
12
Properties=species:S:1:pos:R:3 charge=-1 charge_a=0 charge_b=-1 selection_a=1-5 selection_b=6-12 scaling=1.05 benchmark_Eint=-3.467 benchmark_unit=kcal/mol group=CH-Oa pbc="F F F"
C       -0.02630520      -3.24100398      -0.00265987
H       -0.26213856      -2.17430697      -0.00019384
H        0.55846849      -3.48813215       0.88329832
H        0.55781677      -3.48400988      -0.89017301
H       -0.94367231      -3.83156296      -0.00370481
C       -0.34740459       2.38914982      -0.00009135
C        0.00666415       0.87280368       0.00100585
O       -0.98273126       0.09978934       0.00311706
O        1.22282181       0.58169736      -0.00046320
H       -0.95359408       2.62067759      -0.87874629
H        0.54766331       3.01101766      -0.00056511
H       -0.95386170       2.62213638       0.87797979
12
Properties=species:S:1:pos:R:3 charge=-1 charge_a=0 charge_b=-1 selection_a=1-5 selection_b=6-12 scaling=1.1 benchmark_Eint=-3.329 benchmark_unit=kcal/mol group=CH-Oa pbc="F F F"
C       -0.02630520      -3.24100398      -0.00265987
H       -0.26213856      -2.17430697      -0.00019384
H        0.55846849      -3.48813215       0.88329832
H        0.55781677      -3.48400988      -0.89017301
H       -0.94367231      -3.83156296      -0.00370481
C       -0.38171852       2.49744012       0.00006632
C       -0.02764979       0.98109398       0.00116351
O       -1.01704520       0.20807964       0.00327472
O        1.18850787       0.68998766      -0.00030554
H       -0.98790802       2.72896789      -0.87858863
H        0.51334937       3.11930796      -0.00040745
H       -0.98817564       2.73042668       0.87813745
12
Properties=species:S:1:pos:R:3 charge=-1 charge_a=0 charge_b=-1 selection_a=1-5 selection_b=6-12 scaling=1.25 benchmark_Eint=-2.692 benchmark_unit=kcal/mol group=CH-Oa pbc="F F F"
C       -0.02630520      -3.24100398      -0.00265987
H       -0.26213856      -2.17430697      -0.00019384
H        0.55846849      -3.48813215       0.88329832
H        0.55781677      -3.48400988      -0.89017301
H       -0.94367231      -3.83156296      -0.00370481
C       -0.48466034       2.82231102       0.00053930
C       -0.13059161       1.30596488       0.00163649
O       -1.11998702       0.53295054       0.00374771
O        1.08556606       1.01485856       0.00016745
H       -1.09084984       3.05383879      -0.87811564
H        0.41040755       3.44417886       0.00006553
H       -1.09111746       3.05529758       0.87861044
12
Properties=species:S:1:pos:R:3 charge=-1 charge_a=0 charge_b=-1 selection_a=1-5 selection_b=6-12 scaling=1.5 benchmark_Eint=-1.7 benchmark_unit=kcal/mol group=CH-Oa pbc="F F F"
C       -0.02630520      -3.24100398      -0.00265987
H       -0.26213856      -2.17430697      -0.00019384
H        0.55846849      -3.48813215       0.88329832
H        0.55781677      -3.48400988      -0.89017301
H       -0.94367231      -3.83156296      -0.00370481
C       -0.65623003       3.36376252       0.00132761
C       -0.30216130       1.84741638       0.00242480
O       -1.29155671       1.07440204       0.00453601
O        0.91399637       1.55631006       0.00095576
H       -1.26241953       3.59529029      -0.87732734
H        0.23883786       3.98563036       0.00085384
H       -1.26268715       3.59674908       0.87939875
12
Properties=species:S:1:pos:R:3 charge=-1 charge_a=0 charge_b=-1 selection_a=1-5 selection_b=6-12 scaling=2.0 benchmark_Eint=-0.686 benchmark_unit=kcal/mol group=CH-Oa pbc="F F F"
C       -0.02630520      -3.24100398      -0.00265987
H       -0.26213856      -2.17430697      -0.00019384
H        0.55846849      -3.48813215       0.88329832
H        0.55781677      -3.48400988      -0.89017301
H       -0.94367231      -3.83156296      -0.00370481
C       -0.99936941       4.44666552       0.00290423
C       -0.64530068       2.93031938       0.00400142
O       -1.63469609       2.15730504       0.00611263
O        0.57085699       2.63921306       0.00253237
H       -1.60555891       4.67819329      -0.87575072
H       -0.10430152       5.06853336       0.00243046
H       -1.60582653       4.67965208       0.88097536
7
Properties=species:S:1:pos:R:3 charge=-1 charge_a=0 charge_b=-1 selection_a=1-5 selection_b=6-7 scaling=0.8 benchmark_Eint=-1.339 benchmark_unit=kcal/mol group=CH-Oa pbc="F F F"
C       -0.92257682       0.95341208      -0.84467256
H       -0.25720097       0.26696005      -0.26292687
H       -0.32855573       1.65207473      -1.43969345
H       -1.55458407       1.52969913      -0.16321866
H       -1.56896230       0.38402422      -1.51774684
O        0.65583116      -0.67414204       0.54094180
H        0.43487216      -0.51648025       1.46535639
7
Properties=species:S:1:pos:R:3 charge=-1 charge_a=0 charge_b=-1 selection_a=1-5 selection_b=6-7 scaling=0.85 benchmark_Eint=-3.522 benchmark_unit=kcal/mol group=CH-Oa pbc="F F F"
C       -0.92257682       0.95341208      -0.84467256
H       -0.25720097       0.26696005      -0.26292687
H       -0.32855573       1.65207473      -1.43969345
H       -1.55458407       1.52969913      -0.16321866
H       -1.56896230       0.38402422      -1.51774684
O        0.71289567      -0.73296092       0.59118359
H        0.49193667      -0.57529913       1.51559818
7
Properties=species:S:1:pos:R:3 charge=-1 charge_a=0 charge_b=-1 selection_a=1-5 selection_b=6-7 scaling=0.9 benchmark_Eint=-4.876 benchmark_unit=kcal/mol group=CH-Oa pbc="F F F"
C       -0.92257682       0.95341208      -0.84467256
H       -0.25720097       0.26696005      -0.26292687
H       -0.32855573       1.65207473      -1.43969345
H       -1.55458407       1.52969913      -0.16321866
H       -1.56896230       0.38402422      -1.51774684
O        0.76996018      -0.79177980       0.64142539
H        0.54900118      -0.63411801       1.56583998
7
Properties=species:S:1:pos:R:3 charge=-1 charge_a=0 charge_b=-1 selection_a=1-5 selection_b=6-7 scaling=0.95 benchmark_Eint=-5.643 benchmark_unit=kcal/mol group=CH-Oa pbc="F F F"
C       -0.92257682       0.95341208      -0.84467256
H       -0.25720097       0.26696005      -0.26292687
H       -0.32855573       1.65207473      -1.43969345
H       -1.55458407       1.52969913      -0.16321866
H       -1.56896230       0.38402422      -1.51774684
O        0.82702469      -0.85059868       0.69166718
H        0.60606569      -0.69293689       1.61608177
7
Properties=species:S:1:pos:R:3 charge=-1 charge_a=0 charge_b=-1 selection_a=1-5 selection_b=6-7 scaling=1.0 benchmark_Eint=-6.004 benchmark_unit=kcal/mol group=CH-Oa pbc="F F F"
C       -0.92257682       0.95341208      -0.84467256
H       -0.25720097       0.26696005      -0.26292687
H       -0.32855573       1.65207473      -1.43969345
H       -1.55458407       1.52969913      -0.16321866
H       -1.56896230       0.38402422      -1.51774684
O        0.88408919      -0.90941756       0.74190897
H        0.66313020      -0.75175577       1.66632356
7
Properties=species:S:1:pos:R:3 charge=-1 charge_a=0 charge_b=-1 selection_a=1-5 selection_b=6-7 scaling=1.05 benchmark_Eint=-6.084 benchmark_unit=kcal/mol group=CH-Oa pbc="F F F"
C       -0.92257682       0.95341208      -0.84467256
H       -0.25720097       0.26696005      -0.26292687
H       -0.32855573       1.65207473      -1.43969345
H       -1.55458407       1.52969913      -0.16321866
H       -1.56896230       0.38402422      -1.51774684
O        0.94115370      -0.96823644       0.79215076
H        0.72019471      -0.81057465       1.71656535
7
Properties=species:S:1:pos:R:3 charge=-1 charge_a=0 charge_b=-1 selection_a=1-5 selection_b=6-7 scaling=1.1 benchmark_Eint=-5.98 benchmark_unit=kcal/mol group=CH-Oa pbc="F F F"
C       -0.92257682       0.95341208      -0.84467256
H       -0.25720097       0.26696005      -0.26292687
H       -0.32855573       1.65207473      -1.43969345
H       -1.55458407       1.52969913      -0.16321866
H       -1.56896230       0.38402422      -1.51774684
O        0.99821821      -1.02705532       0.84239255
H        0.77725921      -0.86939353       1.76680714
7
Properties=species:S:1:pos:R:3 charge=-1 charge_a=0 charge_b=-1 selection_a=1-5 selection_b=6-7 scaling=1.25 benchmark_Eint=-5.127 benchmark_unit=kcal/mol group=CH-Oa pbc="F F F"
C       -0.92257682       0.95341208      -0.84467256
H       -0.25720097       0.26696005      -0.26292687
H       -0.32855573       1.65207473      -1.43969345
H       -1.55458407       1.52969913      -0.16321866
H       -1.56896230       0.38402422      -1.51774684
O        1.16941173      -1.20351197       0.99311793
H        0.94845274      -1.04585017       1.91753252
7
Properties=species:S:1:pos:R:3 charge=-1 charge_a=0 charge_b=-1 selection_a=1-5 selection_b=6-7 scaling=1.5 benchmark_Eint=-3.445 benchmark_unit=kcal/mol group=CH-Oa pbc="F F F"
C       -0.92257682       0.95341208      -0.84467256
H       -0.25720097       0.26696005      -0.26292687
H       -0.32855573       1.65207473      -1.43969345
H       -1.55458407       1.52969913      -0.16321866
H       -1.56896230       0.38402422      -1.51774684
O        1.45473428      -1.49760637       1.24432689
H        1.23377528      -1.33994458       2.16874148
7
Properties=species:S:1:pos:R:3 charge=-1 charge_a=0 charge_b=-1 selection_a=1-5 selection_b=6-7 scaling=2.0 benchmark_Eint=-1.436 benchmark_unit=kcal/mol group=CH-Oa pbc="F F F"
C       -0.92257682       0.95341208      -0.84467256
H       -0.25720097       0.26696005      -0.26292687
H       -0.32855573       1.65207473      -1.43969345
H       -1.55458407       1.52969913      -0.16321866
H       -1.56896230       0.38402422      -1.51774684
O        2.02537936      -2.08579517       1.74674481
H        1.80442036      -1.92813338       2.67115940
9
Properties=species:S:1:pos:R:3 charge=-1 charge_a=0 charge_b=-1 selection_a=1-5 selection_b=6-9 scaling=0.8 benchmark_Eint=-0.73 benchmark_unit=kcal/mol group=CH-Oa pbc="F F F"
C       -2.11427344       1.60095724      -1.81127024
H       -1.45747218       1.13998021      -1.07459970
H       -1.51933897       2.15837182      -2.53411414
H       -2.81063146       2.28003377      -1.31900004
H       -2.67595711       0.82800553      -2.33490304
N        0.31693409      -0.26902927       0.07326734
O       -0.53038899       0.55350653       0.50886462
O        0.39382714      -0.49104198      -1.16051430
O        1.08035494      -0.86348262       0.86983450
9
Properties=species:S:1:pos:R:3 charge=-1 charge_a=0 charge_b=-1 selection_a=1-5 selection_b=6-9 scaling=0.85 benchmark_Eint=-1.894 benchmark_unit=kcal/mol group=CH-Oa pbc="F F F"
C       -2.11427344       1.60095724      -1.81127024
H       -1.45747218       1.13998021      -1.07459970
H       -1.51933897       2.15837182      -2.53411414
H       -2.81063146       2.28003377      -1.31900004
H       -2.67595711       0.82800553      -2.33490304
N        0.37487679      -0.30568387       0.17223386
O       -0.47244629       0.51685192       0.60783114
O        0.45176984      -0.52769659      -1.06154778
O        1.13829764      -0.90013723       0.96880102
9
Properties=species:S:1:pos:R:3 charge=-1 charge_a=0 charge_b=-1 selection_a=1-5 selection_b=6-9 scaling=0.9 benchmark_Eint=-2.536 benchmark_unit=kcal/mol group=CH-Oa pbc="F F F"
C       -2.11427344       1.60095724      -1.81127024
H       -1.45747218       1.13998021      -1.07459970
H       -1.51933897       2.15837182      -2.53411414
H       -2.81063146       2.28003377      -1.31900004
H       -2.67595711       0.82800553      -2.33490304
N        0.43281949      -0.34233848       0.27120038
O       -0.41450359       0.48019732       0.70679766
O        0.50971254      -0.56435119      -0.96258126
O        1.19624034      -0.93679183       1.06776754
9
Properties=species:S:1:pos:R:3 charge=-1 charge_a=0 charge_b=-1 selection_a=1-5 selection_b=6-9 scaling=0.95 benchmark_Eint=-2.836 benchmark_unit=kcal/mol group=CH-Oa pbc="F F F"
C       -2.11427344       1.60095724      -1.81127024
H       -1.45747218       1.13998021      -1.07459970
H       -1.51933897       2.15837182      -2.53411414
H       -2.81063146       2.28003377      -1.31900004
H       -2.67595711       0.82800553      -2.33490304
N        0.49076218      -0.37899308       0.37016690
O       -0.35656089       0.44354271       0.80576418
O        0.56765524      -0.60100580      -0.86361474
O        1.25418304      -0.97344644       1.16673406
9
Properties=species:S:1:pos:R:3 charge=-1 charge_a=0 charge_b=-1 selection_a=1-5 selection_b=6-9 scaling=1.0 benchmark_Eint=-2.919 benchmark_unit=kcal/mol group=CH-Oa pbc="F F F"
C       -2.11427344       1.60095724      -1.81127024
H       -1.45747218       1.13998021      -1.07459970
H       -1.51933897       2.15837182      -2.53411414
H       -2.81063146       2.28003377      -1.31900004
H       -2.67595711       0.82800553      -2.33490304
N        0.54870488      -0.41564769       0.46913342
O       -0.29861819       0.40688811       0.90473070
O        0.62559794      -0.63766040      -0.76464822
O        1.31212574      -1.01010104       1.26570058
9
Properties=species:S:1:pos:R:3 charge=-1 charge_a=0 charge_b=-1 selection_a=1-5 selection_b=6-9 scaling=1.05 benchmark_Eint=-2.868 benchmark_unit=kcal/mol group=CH-Oa pbc="F F F"
C       -2.11427344       1.60095724      -1.81127024
H       -1.45747218       1.13998021      -1.07459970
H       -1.51933897       2.15837182      -2.53411414
H       -2.81063146       2.28003377      -1.31900004
H       -2.67595711       0.82800553      -2.33490304
N        0.60664758      -0.45230229       0.56809994
O       -0.24067549       0.37023350       1.00369722
O        0.68354064      -0.67431501      -0.66568170
O        1.37006844      -1.04675564       1.36466710
9
Properties=species:S:1:pos:R:3 charge=-1 charge_a=0 charge_b=-1 selection_a=1-5 selection_b=6-9 scaling=1.1 benchmark_Eint=-2.737 benchmark_unit=kcal/mol group=CH-Oa pbc="F F F"
C       -2.11427344       1.60095724      -1.81127024
H       -1.45747218       1.13998021      -1.07459970
H       -1.51933897       2.15837182      -2.53411414
H       -2.81063146       2.28003377      -1.31900004
H       -2.67595711       0.82800553      -2.33490304
N        0.66459028      -0.48895690       0.66706646
O       -0.18273280       0.33357890       1.10266374
O        0.74148334      -0.71096961      -0.56671518
O        1.42801114      -1.08341025       1.46363362
9
Properties=species:S:1:pos:R:3 charge=-1 charge_a=0 charge_b=-1 selection_a=1-5 selection_b=6-9 scaling=1.25 benchmark_Eint=-2.175 benchmark_unit=kcal/mol group=CH-Oa pbc="F F F"
C       -2.11427344       1.60095724      -1.81127024
H       -1.45747218       1.13998021      -1.07459970
H       -1.51933897       2.15837182      -2.53411414
H       -2.81063146       2.28003377      -1.31900004
H       -2.67595711       0.82800553      -2.33490304
N        0.83841838      -0.59892071       0.96396602
O       -0.00890470       0.22361508       1.39956330
O        0.91531144      -0.82093343      -0.26981562
O        1.60183924      -1.19337406       1.76053318
9
Properties=species:S:1:pos:R:3 charge=-1 charge_a=0 charge_b=-1 selection_a=1-5 selection_b=6-9 scaling=1.5 benchmark_Eint=-1.338 benchmark_unit=kcal/mol group=CH-Oa pbc="F F F"
C       -2.11427344       1.60095724      -1.81127024
H       -1.45747218       1.13998021      -1.07459970
H       -1.51933897       2.15837182      -2.53411414
H       -2.81063146       2.28003377      -1.31900004
H       -2.67595711       0.82800553      -2.33490304
N        1.12813187      -0.78219374       1.45879861
O        0.28080880       0.04034206       1.89439589
O        1.20502493      -1.00420645       0.22501698
O        1.89155273      -1.37664709       2.25536578
9
Properties=species:S:1:pos:R:3 charge=-1 charge_a=0 charge_b=-1 selection_a=1-5 selection_b=6-9 scaling=2.0 benchmark_Eint=-0.519 benchmark_unit=kcal/mol group=CH-Oa pbc="F F F"
C       -2.11427344       1.60095724      -1.81127024
H       -1.45747218       1.13998021      -1.07459970
H       -1.51933897       2.15837182      -2.53411414
H       -2.81063146       2.28003377      -1.31900004
H       -2.67595711       0.82800553      -2.33490304
N        1.70755887      -1.14873979       2.44846381
O        0.86023579      -0.32620399       2.88406109
O        1.78445192      -1.37075250       1.21468218
O        2.47097972      -1.74319314       3.24503098
8
Properties=species:S:1:pos:R:3 charge=-1 charge_a=0 charge_b=-1 selection_a=1-5 selection_b=6-8 scaling=0.8 benchmark_Eint=-0.291 benchmark_unit=kcal/mol group=CH-Oa pbc="F F F"
C        0.08422206       2.69524764       0.00000000
H       -0.09211357       1.61766429       0.00000000
H        0.65308079       2.97378896       0.88720955
H       -0.86590166       3.23082489       0.00000000
H        0.65308079       2.97378896      -0.88720955
N        0.09365902      -0.95574041       0.00000000
O       -0.86177192      -0.13815518       0.00000000
O        1.24793566      -0.46524947       0.00000000
8
Properties=species:S:1:pos:R:3 charge=-1 charge_a=0 charge_b=-1 selection_a=1-5 selection_b=6-8 scaling=0.85 benchmark_Eint=-1.602 benchmark_unit=kcal/mol group=CH-Oa pbc="F F F"
C        0.08422206       2.69524764       0.00000000
H       -0.09211357       1.61766429       0.00000000
H        0.65308079       2.97378896       0.88720955
H       -0.86590166       3.23082489       0.00000000
H        0.65308079       2.97378896      -0.88720955
N        0.04555537      -1.06547913       0.00000000
O       -0.90987557      -0.24789390       0.00000000
O        1.19983202      -0.57498819       0.00000000
8
Properties=species:S:1:pos:R:3 charge=-1 charge_a=0 charge_b=-1 selection_a=1-5 selection_b=6-8 scaling=0.9 benchmark_Eint=-2.37 benchmark_unit=kcal/mol group=CH-Oa pbc="F F F"
C        0.08422206       2.69524764       0.00000000
H       -0.09211357       1.61766429       0.00000000
H        0.65308079       2.97378896       0.88720955
H       -0.86590166       3.23082489       0.00000000
H        0.65308079       2.97378896      -0.88720955
N       -0.00254828      -1.17521785       0.00000000
O       -0.95797922      -0.35763261       0.00000000
O        1.15172837      -0.68472690       0.00000000
8
Properties=species:S:1:pos:R:3 charge=-1 charge_a=0 charge_b=-1 selection_a=1-5 selection_b=6-8 scaling=0.95 benchmark_Eint=-2.779 benchmark_unit=kcal/mol group=CH-Oa pbc="F F F"
C        0.08422206       2.69524764       0.00000000
H       -0.09211357       1.61766429       0.00000000
H        0.65308079       2.97378896       0.88720955
H       -0.86590166       3.23082489       0.00000000
H        0.65308079       2.97378896      -0.88720955
N       -0.05065192      -1.28495656       0.00000000
O       -1.00608286      -0.46737133       0.00000000
O        1.10362472      -0.79446562       0.00000000
8
Properties=species:S:1:pos:R:3 charge=-1 charge_a=0 charge_b=-1 selection_a=1-5 selection_b=6-8 scaling=1.0 benchmark_Eint=-2.952 benchmark_unit=kcal/mol group=CH-Oa pbc="F F F"
C        0.08422206       2.69524764       0.00000000
H       -0.09211357       1.61766429       0.00000000
H        0.65308079       2.97378896       0.88720955
H       -0.86590166       3.23082489       0.00000000
H        0.65308079       2.97378896      -0.88720955
N       -0.09875557      -1.39469528       0.00000000
O       -1.05418651      -0.57711005       0.00000000
O        1.05552108      -0.90420434       0.00000000
8
Properties=species:S:1:pos:R:3 charge=-1 charge_a=0 charge_b=-1 selection_a=1-5 selection_b=6-8 scaling=1.05 benchmark_Eint=-2.971 benchmark_unit=kcal/mol group=CH-Oa pbc="F F F"
C        0.08422206       2.69524764       0.00000000
H       -0.09211357       1.61766429       0.00000000
H        0.65308079       2.97378896       0.88720955
H       -0.86590166       3.23082489       0.00000000
H        0.65308079       2.97378896      -0.88720955
N       -0.14685922      -1.50443400       0.00000000
O       -1.10229016      -0.68684876       0.00000000
O        1.00741743      -1.01394305       0.00000000
8
Properties=species:S:1:pos:R:3 charge=-1 charge_a=0 charge_b=-1 selection_a=1-5 selection_b=6-8 scaling=1.1 benchmark_Eint=-2.895 benchmark_unit=kcal/mol group=CH-Oa pbc="F F F"
C        0.08422206       2.69524764       0.00000000
H       -0.09211357       1.61766429       0.00000000
H        0.65308079       2.97378896       0.88720955
H       -0.86590166       3.23082489       0.00000000
H        0.65308079       2.97378896      -0.88720955
N       -0.19496287      -1.61417271       0.00000000
O       -1.15039380      -0.79658748       0.00000000
O        0.95931378      -1.12368177       0.00000000
8
Properties=species:S:1:pos:R:3 charge=-1 charge_a=0 charge_b=-1 selection_a=1-5 selection_b=6-8 scaling=1.25 benchmark_Eint=-2.418 benchmark_unit=kcal/mol group=CH-Oa pbc="F F F"
C        0.08422206       2.69524764       0.00000000
H       -0.09211357       1.61766429       0.00000000
H        0.65308079       2.97378896       0.88720955
H       -0.86590166       3.23082489       0.00000000
H        0.65308079       2.97378896      -0.88720955
N       -0.33927380      -1.94338886       0.00000000
O       -1.29470474      -1.12580363       0.00000000
O        0.81500284      -1.45289792       0.00000000
8
Properties=species:S:1:pos:R:3 charge=-1 charge_a=0 charge_b=-1 selection_a=1-5 selection_b=6-8 scaling=1.5 benchmark_Eint=-1.57 benchmark_unit=kcal/mol group=CH-Oa pbc="F F F"
C        0.08422206       2.69524764       0.00000000
H       -0.09211357       1.61766429       0.00000000
H        0.65308079       2.97378896       0.88720955
H       -0.86590166       3.23082489       0.00000000
H        0.65308079       2.97378896      -0.88720955
N       -0.57979204      -2.49208245       0.00000000
O       -1.53522298      -1.67449721       0.00000000
O        0.57448461      -2.00159150       0.00000000
8
Properties=species:S:1:pos:R:3 charge=-1 charge_a=0 charge_b=-1 selection_a=1-5 selection_b=6-8 scaling=2.0 benchmark_Eint=-0.63 benchmark_unit=kcal/mol group=CH-Oa pbc="F F F"
C        0.08422206       2.69524764       0.00000000
H       -0.09211357       1.61766429       0.00000000
H        0.65308079       2.97378896       0.88720955
H       -0.86590166       3.23082489       0.00000000
H        0.65308079       2.97378896      -0.88720955
N       -1.06082851      -3.58946962       0.00000000
O       -2.01625945      -2.77188438       0.00000000
O        0.09344814      -3.09897867       0.00000000
19
Properties=species:S:1:pos:R:3 charge=-1 charge_a=0 charge_b=-1 selection_a=1-12 selection_b=13-19 scaling=0.8 benchmark_Eint=-4.732 benchmark_unit=kcal/mol group=CH-Oa pbc="F F F"
C       -1.16779672      -0.13974720      -0.17183738
H       -0.79223819       0.87859370      -0.14508283
C       -0.24780173      -1.16603043       0.03124753
H        0.78579256      -0.88182902       0.20306743
C       -0.67289972      -2.49010477       0.00699617
H        0.04083708      -3.28915377       0.16447016
C       -2.01287123      -2.79637640      -0.21912281
H       -2.34018497      -3.82848460      -0.23739661
C       -2.93123295      -1.77198475      -0.42192411
H       -3.97368527      -2.00640594      -0.59816401
C       -2.50563900      -0.44580969      -0.39766408
H       -3.22221365       0.35052825      -0.55596702
C        2.83485749       2.61177350       0.26841019
C        1.69284399       1.56190808       0.22149063
O        2.03685152       0.36340434       0.35474421
O        0.54214737       2.02355768       0.03097580
H        3.72848315       2.20535698       0.74129928
H        2.50618797       3.51138879       0.78989975
H        3.08612886       2.89975913      -0.75557445
19
Properties=species:S:1:pos:R:3 charge=-1 charge_a=0 charge_b=-1 selection_a=1-12 selection_b=13-19 scaling=0.85 benchmark_Eint=-8.198 benchmark_unit=kcal/mol group=CH-Oa pbc="F F F"
C       -1.16779672      -0.13974720      -0.17183738
H       -0.79223819       0.87859370      -0.14508283
C       -0.24780173      -1.16603043       0.03124753
H        0.78579256      -0.88182902       0.20306743
C       -0.67289972      -2.49010477       0.00699617
H        0.04083708      -3.28915377       0.16447016
C       -2.01287123      -2.79637640      -0.21912281
H       -2.34018497      -3.82848460      -0.23739661
C       -2.93123295      -1.77198475      -0.42192411
H       -3.97368527      -2.00640594      -0.59816401
C       -2.50563900      -0.44580969      -0.39766408
H       -3.22221365       0.35052825      -0.55596702
C        2.91559318       2.68641220       0.27864438
C        1.77357968       1.63654679       0.23172482
O        2.11758721       0.43804304       0.36497840
O        0.62288306       2.09819639       0.04121000
H        3.80921884       2.27999569       0.75153348
H        2.58692366       3.58602749       0.80013394
H        3.16686455       2.97439783      -0.74534026
19
Properties=species:S:1:pos:R:3 charge=-1 charge_a=0 charge_b=-1 selection_a=1-12 selection_b=13-19 scaling=0.9 benchmark_Eint=-10.111 benchmark_unit=kcal/mol group=CH-Oa pbc="F F F"
C       -1.16779672      -0.13974720      -0.17183738
H       -0.79223819       0.87859370      -0.14508283
C       -0.24780173      -1.16603043       0.03124753
H        0.78579256      -0.88182902       0.20306743
C       -0.67289972      -2.49010477       0.00699617
H        0.04083708      -3.28915377       0.16447016
C       -2.01287123      -2.79637640      -0.21912281
H       -2.34018497      -3.82848460      -0.23739661
C       -2.93123295      -1.77198475      -0.42192411
H       -3.97368527      -2.00640594      -0.59816401
C       -2.50563900      -0.44580969      -0.39766408
H       -3.22221365       0.35052825      -0.55596702
C        2.99632887       2.76105091       0.28887858
C        1.85431537       1.71118550       0.24195902
O        2.19832290       0.51268175       0.37521260
O        0.70361875       2.17283510       0.05144420
H        3.88995453       2.35463440       0.76176767
H        2.66765935       3.66066620       0.81036814
H        3.24760024       3.04903654      -0.73510606
19
Properties=species:S:1:pos:R:3 charge=-1 charge_a=0 charge_b=-1 selection_a=1-12 selection_b=13-19 scaling=0.95 benchmark_Eint=-10.999 benchmark_unit=kcal/mol group=CH-Oa pbc="F F F"
C       -1.16779672      -0.13974720      -0.17183738
H       -0.79223819       0.87859370      -0.14508283
C       -0.24780173      -1.16603043       0.03124753
H        0.78579256      -0.88182902       0.20306743
C       -0.67289972      -2.49010477       0.00699617
H        0.04083708      -3.28915377       0.16447016
C       -2.01287123      -2.79637640      -0.21912281
H       -2.34018497      -3.82848460      -0.23739661
C       -2.93123295      -1.77198475      -0.42192411
H       -3.97368527      -2.00640594      -0.59816401
C       -2.50563900      -0.44580969      -0.39766408
H       -3.22221365       0.35052825      -0.55596702
C        3.07706456       2.83568961       0.29911277
C        1.93505106       1.78582420       0.25219321
O        2.27905859       0.58732045       0.38544679
O        0.78435444       2.24747380       0.06167839
H        3.97069022       2.42927310       0.77200187
H        2.74839505       3.73530491       0.82060233
H        3.32833593       3.12367524      -0.72487187
19
Properties=species:S:1:pos:R:3 charge=-1 charge_a=0 charge_b=-1 selection_a=1-12 selection_b=13-19 scaling=1.0 benchmark_Eint=-11.225 benchmark_unit=kcal/mol group=CH-Oa pbc="F F F"
C       -1.16779672      -0.13974720      -0.17183738
H       -0.79223819       0.87859370      -0.14508283
C       -0.24780173      -1.16603043       0.03124753
H        0.78579256      -0.88182902       0.20306743
C       -0.67289972      -2.49010477       0.00699617
H        0.04083708      -3.28915377       0.16447016
C       -2.01287123      -2.79637640      -0.21912281
H       -2.34018497      -3.82848460      -0.23739661
C       -2.93123295      -1.77198475      -0.42192411
H       -3.97368527      -2.00640594      -0.59816401
C       -2.50563900      -0.44580969      -0.39766408
H       -3.22221365       0.35052825      -0.55596702
C        3.15780025       2.91032832       0.30934697
C        2.01578675       1.86046291       0.26242741
O        2.35979428       0.66195916       0.39568099
O        0.86509013       2.32211251       0.07191259
H        4.05142592       2.50391181       0.78223607
H        2.82913074       3.80994361       0.83083653
H        3.40907162       3.19831395      -0.71463767
19
Properties=species:S:1:pos:R:3 charge=-1 charge_a=0 charge_b=-1 selection_a=1-12 selection_b=13-19 scaling=1.05 benchmark_Eint=-11.036 benchmark_unit=kcal/mol group=CH-Oa pbc="F F F"
C       -1.16779672      -0.13974720      -0.17183738
H       -0.79223819       0.87859370      -0.14508283
C       -0.24780173      -1.16603043       0.03124753
H        0.78579256      -0.88182902       0.20306743
C       -0.67289972      -2.49010477       0.00699617
H        0.04083708      -3.28915377       0.16447016
C       -2.01287123      -2.79637640      -0.21912281
H       -2.34018497      -3.82848460      -0.23739661
C       -2.93123295      -1.77198475      -0.42192411
H       -3.97368527      -2.00640594      -0.59816401
C       -2.50563900      -0.44580969      -0.39766408
H       -3.22221365       0.35052825      -0.55596702
C        3.23853594       2.98496703       0.31958117
C        2.09652244       1.93510161       0.27266160
O        2.44052997       0.73659787       0.40591519
O        0.94582583       2.39675121       0.08214678
H        4.13216161       2.57855051       0.79247026
H        2.90986643       3.88458232       0.84107072
H        3.48980731       3.27295266      -0.70440348
19
Properties=species:S:1:pos:R:3 charge=-1 charge_a=0 charge_b=-1 selection_a=1-12 selection_b=13-19 scaling=1.1 benchmark_Eint=-10.598 benchmark_unit=kcal/mol group=CH-Oa pbc="F F F"
C       -1.16779672      -0.13974720      -0.17183738
H       -0.79223819       0.87859370      -0.14508283
C       -0.24780173      -1.16603043       0.03124753
H        0.78579256      -0.88182902       0.20306743
C       -0.67289972      -2.49010477       0.00699617
H        0.04083708      -3.28915377       0.16447016
C       -2.01287123      -2.79637640      -0.21912281
H       -2.34018497      -3.82848460      -0.23739661
C       -2.93123295      -1.77198475      -0.42192411
H       -3.97368527      -2.00640594      -0.59816401
C       -2.50563900      -0.44580969      -0.39766408
H       -3.22221365       0.35052825      -0.55596702
C        3.31927163       3.05960573       0.32981536
C        2.17725813       2.00974032       0.28289580
O        2.52126566       0.81123657       0.41614938
O        1.02656152       2.47138992       0.09238098
H        4.21289730       2.65318922       0.80270446
H        2.99060212       3.95922102       0.85130492
H        3.57054301       3.34759136      -0.69416928
19
Properties=species:S:1:pos:R:3 charge=-1 charge_a=0 charge_b=-1 selection_a=1-12 selection_b=13-19 scaling=1.25 benchmark_Eint=-8.719 benchmark_unit=kcal/mol group=CH-Oa pbc="F F F"
C       -1.16779672      -0.13974720      -0.17183738
H       -0.79223819       0.87859370      -0.14508283
C       -0.24780173      -1.16603043       0.03124753
H        0.78579256      -0.88182902       0.20306743
C       -0.67289972      -2.49010477       0.00699617
H        0.04083708      -3.28915377       0.16447016
C       -2.01287123      -2.79637640      -0.21912281
H       -2.34018497      -3.82848460      -0.23739661
C       -2.93123295      -1.77198475      -0.42192411
H       -3.97368527      -2.00640594      -0.59816401
C       -2.50563900      -0.44580969      -0.39766408
H       -3.22221365       0.35052825      -0.55596702
C        3.56147870       3.28352185       0.36051795
C        2.41946520       2.23365644       0.31359839
O        2.76347273       1.03515269       0.44685197
O        1.26876859       2.69530604       0.12308357
H        4.45510437       2.87710534       0.83340704
H        3.23280919       4.18313714       0.88200751
H        3.81275008       3.57150748      -0.66346669
19
Properties=species:S:1:pos:R:3 charge=-1 charge_a=0 charge_b=-1 selection_a=1-12 selection_b=13-19 scaling=1.5 benchmark_Eint=-5.827 benchmark_unit=kcal/mol group=CH-Oa pbc="F F F"
C       -1.16779672      -0.13974720      -0.17183738
H       -0.79223819       0.87859370      -0.14508283
C       -0.24780173      -1.16603043       0.03124753
H        0.78579256      -0.88182902       0.20306743
C       -0.67289972      -2.49010477       0.00699617
H        0.04083708      -3.28915377       0.16447016
C       -2.01287123      -2.79637640      -0.21912281
H       -2.34018497      -3.82848460      -0.23739661
C       -2.93123295      -1.77198475      -0.42192411
H       -3.97368527      -2.00640594      -0.59816401
C       -2.50563900      -0.44580969      -0.39766408
H       -3.22221365       0.35052825      -0.55596702
C        3.96515715       3.65671538       0.41168893
C        2.82314365       2.60684996       0.36476936
O        3.16715118       1.40834622       0.49802294
O        1.67244704       3.06849956       0.17425454
H        4.85878282       3.25029886       0.88457802
H        3.63648764       4.55633067       0.93317848
H        4.21642853       3.94470101      -0.61229572
19
Properties=species:S:1:pos:R:3 charge=-1 charge_a=0 charge_b=-1 selection_a=1-12 selection_b=13-19 scaling=2.0 benchmark_Eint=-2.733 benchmark_unit=kcal/mol group=CH-Oa pbc="F F F"
C       -1.16779672      -0.13974720      -0.17183738
H       -0.79223819       0.87859370      -0.14508283
C       -0.24780173      -1.16603043       0.03124753
H        0.78579256      -0.88182902       0.20306743
C       -0.67289972      -2.49010477       0.00699617
H        0.04083708      -3.28915377       0.16447016
C       -2.01287123      -2.79637640      -0.21912281
H       -2.34018497      -3.82848460      -0.23739661
C       -2.93123295      -1.77198475      -0.42192411
H       -3.97368527      -2.00640594      -0.59816401
C       -2.50563900      -0.44580969      -0.39766408
H       -3.22221365       0.35052825      -0.55596702
C        4.77251406       4.40310244       0.51403088
C        3.63050056       3.35323702       0.46711132
O        3.97450809       2.15473328       0.60036490
O        2.47980395       3.81488662       0.27659650
H        5.66613972       3.99668592       0.98691998
H        4.44384455       5.30271773       1.03552044
H        5.02378543       4.69108806      -0.50995376
26
Properties=species:S:1:pos:R:3 charge=-1 charge_a=0 charge_b=-1 selection_a=1-12 selection_b=13-26 scaling=0.8 benchmark_Eint=-3.99 benchmark_unit=kcal/mol group=CH-Oa pbc="F F F"
C       -2.44549846      -0.71530226      -1.48484894
H       -1.89392384       0.17373660      -1.19914089
C       -1.93484589      -1.94779874      -1.08476026
H       -1.01495490      -1.94773240      -0.51037864
C       -2.60513512      -3.11762600      -1.42616395
H       -2.20939139      -4.07645486      -1.11585196
C       -3.78395681      -3.06374417      -2.16579072
H       -4.30317915      -3.97644392      -2.42983497
C       -4.29382272      -1.83322769      -2.56526996
H       -5.21006532      -1.78775568      -3.14039296
C       -3.62275146      -0.66172899      -2.22346069
H       -4.02098644       0.29558970      -2.53523482
O        0.32799494      -1.05146560       0.27081779
C        0.32791717       0.19783364       0.18867127
O       -0.49988933       0.94467894      -0.38098898
C        1.50492438       0.91240503       0.88195503
C        1.60865930       2.30177939       0.85621854
C        2.66861438       2.94955017       1.48033703
C        3.64522080       2.21181407       2.14275958
C        3.55056418       0.82369428       2.17411518
C        2.48779230       0.18272181       1.54777296
H        0.83641245       2.84897218       0.33478208
H        2.73612088       4.03024004       1.45202658
H        4.47181925       2.71365589       2.62969238
H        4.30718208       0.24334206       2.68789509
H        2.38896394      -0.89331075       1.55607850
26
Properties=species:S:1:pos:R:3 charge=-1 charge_a=0 charge_b=-1 selection_a=1-12 selection_b=13-26 scaling=0.85 benchmark_Eint=-7.301 benchmark_unit=kcal/mol group=CH-Oa pbc="F F F"
C       -2.44549846      -0.71530226      -1.48484894
H       -1.89392384       0.17373660      -1.19914089
C       -1.93484589      -1.94779874      -1.08476026
H       -1.01495490      -1.94773240      -0.51037864
C       -2.60513512      -3.11762600      -1.42616395
H       -2.20939139      -4.07645486      -1.11585196
C       -3.78395681      -3.06374417      -2.16579072
H       -4.30317915      -3.97644392      -2.42983497
C       -4.29382272      -1.83322769      -2.56526996
H       -5.21006532      -1.78775568      -3.14039296
C       -3.62275146      -0.66172899      -2.22346069
H       -4.02098644       0.29558970      -2.53523482
O        0.41351139      -0.99937403       0.32078906
C        0.41343362       0.24992521       0.23864254
O       -0.41437288       0.99677050      -0.33101771
C        1.59044083       0.96449659       0.93192630
C        1.69417575       2.35387096       0.90618981
C        2.75413083       3.00164174       1.53030830
C        3.73073725       2.26390564       2.19273086
C        3.63608063       0.87578585       2.22408645
C        2.57330875       0.23481338       1.59774423
H        0.92192889       2.90106375       0.38475336
H        2.82163732       4.08233161       1.50199786
H        4.55733569       2.76574746       2.67966366
H        4.39269853       0.29543363       2.73786636
H        2.47448039      -0.84121918       1.60604977
26
Properties=species:S:1:pos:R:3 charge=-1 charge_a=0 charge_b=-1 selection_a=1-12 selection_b=13-26 scaling=0.9 benchmark_Eint=-9.118 benchmark_unit=kcal/mol group=CH-Oa pbc="F F F"
C       -2.44549846      -0.71530226      -1.48484894
H       -1.89392384       0.17373660      -1.19914089
C       -1.93484589      -1.94779874      -1.08476026
H       -1.01495490      -1.94773240      -0.51037864
C       -2.60513512      -3.11762600      -1.42616395
H       -2.20939139      -4.07645486      -1.11585196
C       -3.78395681      -3.06374417      -2.16579072
H       -4.30317915      -3.97644392      -2.42983497
C       -4.29382272      -1.83322769      -2.56526996
H       -5.21006532      -1.78775568      -3.14039296
C       -3.62275146      -0.66172899      -2.22346069
H       -4.02098644       0.29558970      -2.53523482
O        0.49902784      -0.94728246       0.37076033
C        0.49895007       0.30201678       0.28861381
O       -0.32885644       1.04886207      -0.28104644
C        1.67595728       1.01658816       0.98189757
C        1.77969220       2.40596253       0.95616108
C        2.83964728       3.05373331       1.58027957
C        3.81625369       2.31599721       2.24270213
C        3.72159708       0.92787742       2.27405772
C        2.65882520       0.28690495       1.64771551
H        1.00744534       2.95315532       0.43472463
H        2.90715377       4.13442317       1.55196913
H        4.64285214       2.81783903       2.72963493
H        4.47821498       0.34752520       2.78783763
H        2.55999684      -0.78912762       1.65602104
26
Properties=species:S:1:pos:R:3 charge=-1 charge_a=0 charge_b=-1 selection_a=1-12 selection_b=13-26 scaling=0.95 benchmark_Eint=-9.957 benchmark_unit=kcal/mol group=CH-Oa pbc="F F F"
C       -2.44549846      -0.71530226      -1.48484894
H       -1.89392384       0.17373660      -1.19914089
C       -1.93484589      -1.94779874      -1.08476026
H       -1.01495490      -1.94773240      -0.51037864
C       -2.60513512      -3.11762600      -1.42616395
H       -2.20939139      -4.07645486      -1.11585196
C       -3.78395681      -3.06374417      -2.16579072
H       -4.30317915      -3.97644392      -2.42983497
C       -4.29382272      -1.83322769      -2.56526996
H       -5.21006532      -1.78775568      -3.14039296
C       -3.62275146      -0.66172899      -2.22346069
H       -4.02098644       0.29558970      -2.53523482
O        0.58454429      -0.89519090       0.42073160
C        0.58446652       0.35410834       0.33858509
O       -0.24333999       1.10095364      -0.23107517
C        1.76147372       1.06867973       1.03186884
C        1.86520865       2.45805409       1.00613235
C        2.92516372       3.10582488       1.63025085
C        3.90177014       2.36808878       2.29267340
C        3.80711353       0.97996899       2.32402899
C        2.74434165       0.33899651       1.69768678
H        1.09296179       3.00524689       0.48469590
H        2.99267022       4.18651474       1.60194040
H        4.72836859       2.86993060       2.77960620
H        4.56373143       0.39961676       2.83780891
H        2.64551329      -0.73703605       1.70599232
26
Properties=species:S:1:pos:R:3 charge=-1 charge_a=0 charge_b=-1 selection_a=1-12 selection_b=13-26 scaling=1.0 benchmark_Eint=-10.166 benchmark_unit=kcal/mol group=CH-Oa pbc="F F F"
C       -2.44549846      -0.71530226      -1.48484894
H       -1.89392384       0.17373660      -1.19914089
C       -1.93484589      -1.94779874      -1.08476026
H       -1.01495490      -1.94773240      -0.51037864
C       -2.60513512      -3.11762600      -1.42616395
H       -2.20939139      -4.07645486      -1.11585196
C       -3.78395681      -3.06374417      -2.16579072
H       -4.30317915      -3.97644392      -2.42983497
C       -4.29382272      -1.83322769      -2.56526996
H       -5.21006532      -1.78775568      -3.14039296
C       -3.62275146      -0.66172899      -2.22346069
H       -4.02098644       0.29558970      -2.53523482
O        0.67006074      -0.84309933       0.47070288
C        0.66998296       0.40619991       0.38855636
O       -0.15782354       1.15304520      -0.18110389
C        1.84699017       1.12077130       1.08184012
C        1.95072509       2.51014566       1.05610362
C        3.01068017       3.15791644       1.68022212
C        3.98728659       2.42018034       2.34264467
C        3.89262998       1.03206055       2.37400027
C        2.82985810       0.39108808       1.74765805
H        1.17847824       3.05733845       0.53466717
H        3.07818667       4.23860631       1.65191167
H        4.81388504       2.92202216       2.82957747
H        4.64924788       0.45170833       2.88778018
H        2.73102974      -0.68494448       1.75596359
26
Properties=species:S:1:pos:R:3 charge=-1 charge_a=0 charge_b=-1 selection_a=1-12 selection_b=13-26 scaling=1.05 benchmark_Eint=-9.984 benchmark_unit=kcal/mol group=CH-Oa pbc="F F F"
C       -2.44549846      -0.71530226      -1.48484894
H       -1.89392384       0.17373660      -1.19914089
C       -1.93484589      -1.94779874      -1.08476026
H       -1.01495490      -1.94773240      -0.51037864
C       -2.60513512      -3.11762600      -1.42616395
H       -2.20939139      -4.07645486      -1.11585196
C       -3.78395681      -3.06374417      -2.16579072
H       -4.30317915      -3.97644392      -2.42983497
C       -4.29382272      -1.83322769      -2.56526996
H       -5.21006532      -1.78775568      -3.14039296
C       -3.62275146      -0.66172899      -2.22346069
H       -4.02098644       0.29558970      -2.53523482
O        0.75557719      -0.79100776       0.52067415
C        0.75549941       0.45829148       0.43852763
O       -0.07230709       1.20513677      -0.13113262
C        1.93250662       1.17286286       1.13181139
C        2.03624154       2.56223723       1.10607490
C        3.09619662       3.21000801       1.73019339
C        4.07280304       2.47227191       2.39261594
C        3.97814642       1.08415212       2.42397154
C        2.91537454       0.44317965       1.79762932
H        1.26399469       3.10943002       0.58463844
H        3.16370312       4.29069787       1.70188294
H        4.89940149       2.97411373       2.87954874
H        4.73476433       0.50379990       2.93775145
H        2.81654618      -0.63285291       1.80593486
26
Properties=species:S:1:pos:R:3 charge=-1 charge_a=0 charge_b=-1 selection_a=1-12 selection_b=13-26 scaling=1.1 benchmark_Eint=-9.571 benchmark_unit=kcal/mol group=CH-Oa pbc="F F F"
C       -2.44549846      -0.71530226      -1.48484894
H       -1.89392384       0.17373660      -1.19914089
C       -1.93484589      -1.94779874      -1.08476026
H       -1.01495490      -1.94773240      -0.51037864
C       -2.60513512      -3.11762600      -1.42616395
H       -2.20939139      -4.07645486      -1.11585196
C       -3.78395681      -3.06374417      -2.16579072
H       -4.30317915      -3.97644392      -2.42983497
C       -4.29382272      -1.83322769      -2.56526996
H       -5.21006532      -1.78775568      -3.14039296
C       -3.62275146      -0.66172899      -2.22346069
H       -4.02098644       0.29558970      -2.53523482
O        0.84109363      -0.73891619       0.57064542
C        0.84101586       0.51038305       0.48849890
O        0.01320936       1.25722834      -0.08116135
C        2.01802307       1.22495443       1.18178266
C        2.12175799       2.61432879       1.15604617
C        3.18171307       3.26209958       1.78016466
C        4.15831949       2.52436348       2.44258722
C        4.06366287       1.13624369       2.47394281
C        3.00089099       0.49527122       1.84760060
H        1.34951113       3.16152159       0.63460971
H        3.24921956       4.34278944       1.75185422
H        4.98491794       3.02620530       2.92952002
H        4.82028077       0.55589146       2.98772272
H        2.90206263      -0.58076135       1.85590613
26
Properties=species:S:1:pos:R:3 charge=-1 charge_a=0 charge_b=-1 selection_a=1-12 selection_b=13-26 scaling=1.25 benchmark_Eint=-7.823 benchmark_unit=kcal/mol group=CH-Oa pbc="F F F"
C       -2.44549846      -0.71530226      -1.48484894
H       -1.89392384       0.17373660      -1.19914089
C       -1.93484589      -1.94779874      -1.08476026
H       -1.01495490      -1.94773240      -0.51037864
C       -2.60513512      -3.11762600      -1.42616395
H       -2.20939139      -4.07645486      -1.11585196
C       -3.78395681      -3.06374417      -2.16579072
H       -4.30317915      -3.97644392      -2.42983497
C       -4.29382272      -1.83322769      -2.56526996
H       -5.21006532      -1.78775568      -3.14039296
C       -3.62275146      -0.66172899      -2.22346069
H       -4.02098644       0.29558970      -2.53523482
O        1.09764298      -0.58264149       0.72055923
C        1.09756520       0.66665775       0.63841272
O        0.26975870       1.41350304       0.06875246
C        2.27457241       1.38122913       1.33169648
C        2.37830734       2.77060350       1.30595998
C        3.43826241       3.41837428       1.93007848
C        4.41486883       2.68063818       2.59250103
C        4.32021222       1.29251839       2.62385663
C        3.25744034       0.65154592       1.99751441
H        1.60606048       3.31779629       0.78452353
H        3.50576891       4.49906414       1.90176803
H        5.24146728       3.18248000       3.07943383
H        5.07683012       0.71216617       3.13763654
H        3.15861198      -0.42448665       2.00581995
26
Properties=species:S:1:pos:R:3 charge=-1 charge_a=0 charge_b=-1 selection_a=1-12 selection_b=13-26 scaling=1.5 benchmark_Eint=-5.178 benchmark_unit=kcal/mol group=CH-Oa pbc="F F F"
C       -2.44549846      -0.71530226      -1.48484894
H       -1.89392384       0.17373660      -1.19914089
C       -1.93484589      -1.94779874      -1.08476026
H       -1.01495490      -1.94773240      -0.51037864
C       -2.60513512      -3.11762600      -1.42616395
H       -2.20939139      -4.07645486      -1.11585196
C       -3.78395681      -3.06374417      -2.16579072
H       -4.30317915      -3.97644392      -2.42983497
C       -4.29382272      -1.83322769      -2.56526996
H       -5.21006532      -1.78775568      -3.14039296
C       -3.62275146      -0.66172899      -2.22346069
H       -4.02098644       0.29558970      -2.53523482
O        1.52522522      -0.32218366       0.97041559
C        1.52514745       0.92711558       0.88826908
O        0.69734094       1.67396088       0.31860882
C        2.70215465       1.64168697       1.58155284
C        2.80588958       3.03106133       1.55581634
C        3.86584466       3.67883212       2.17993484
C        4.84245107       2.94109602       2.84235739
C        4.74779446       1.55297623       2.87371299
C        3.68502258       0.91200375       2.24737077
H        2.03364272       3.57825412       1.03437989
H        3.93335115       4.75952198       2.15162439
H        5.66904952       3.44293783       3.32929019
H        5.50441236       0.97262400       3.38749290
H        3.58619422      -0.16402881       2.25567631
26
Properties=species:S:1:pos:R:3 charge=-1 charge_a=0 charge_b=-1 selection_a=1-12 selection_b=13-26 scaling=2.0 benchmark_Eint=-2.411 benchmark_unit=kcal/mol group=CH-Oa pbc="F F F"
C       -2.44549846      -0.71530226      -1.48484894
H       -1.89392384       0.17373660      -1.19914089
C       -1.93484589      -1.94779874      -1.08476026
H       -1.01495490      -1.94773240      -0.51037864
C       -2.60513512      -3.11762600      -1.42616395
H       -2.20939139      -4.07645486      -1.11585196
C       -3.78395681      -3.06374417      -2.16579072
H       -4.30317915      -3.97644392      -2.42983497
C       -4.29382272      -1.83322769      -2.56526996
H       -5.21006532      -1.78775568      -3.14039296
C       -3.62275146      -0.66172899      -2.22346069
H       -4.02098644       0.29558970      -2.53523482
O        2.38038970       0.19873202       1.47012831
C        2.38031193       1.44803126       1.38798180
O        1.55250543       2.19487655       0.81832154
C        3.55731914       2.16260264       2.08126555
C        3.66105406       3.55197700       2.05552906
C        4.72100914       4.19974779       2.67964756
C        5.69761555       3.46201169       3.34207011
C        5.60295894       2.07389190       3.37342570
C        4.54018706       1.43291942       2.74708349
H        2.88880720       4.09916980       1.53409261
H        4.78851563       5.28043765       2.65133711
H        6.52421400       3.96385351       3.82900291
H        6.35957684       1.49353967       3.88720562
H        4.44135870       0.35688686       2.75538902
13
Properties=species:S:1:pos:R:3 charge=-1 charge_a=0 charge_b=-1 selection_a=1-6 selection_b=7-13 scaling=0.8 benchmark_Eint=-1.88 benchmark_unit=kcal/mol group=CH-Oa pbc="F F F"
H       -0.61691352       1.96055782      -0.35456849
H       -0.99104773       3.26362893      -1.64626650
H       -0.36771851       1.62586321      -3.39082152
H       -0.01670555       0.38335109      -2.03419408
C       -0.66790652       2.25700893      -1.39805267
C       -0.33341139       1.37807554      -2.33404499
C        0.38909733      -1.54557467       1.56657883
C        0.13524791      -0.46089788       0.48193824
O       -0.24673506       0.65788457       0.89823432
O        0.32156444      -0.83219066      -0.70111536
H        0.48287251      -1.10334871       2.55829476
H        1.28247924      -2.12321717       1.32499011
H       -0.45584225      -2.23901924       1.57295912
13
Properties=species:S:1:pos:R:3 charge=-1 charge_a=0 charge_b=-1 selection_a=1-6 selection_b=7-13 scaling=0.85 benchmark_Eint=-4.816 benchmark_unit=kcal/mol group=CH-Oa pbc="F F F"
H       -0.61691352       1.96055782      -0.35456849
H       -0.99104773       3.26362893      -1.64626650
H       -0.36771851       1.62586321      -3.39082152
H       -0.01670555       0.38335109      -2.03419408
C       -0.66790652       2.25700893      -1.39805267
C       -0.33341139       1.37807554      -2.33404499
C        0.41118982      -1.62410349       1.64721779
C        0.15734040      -0.53942670       0.56257719
O       -0.22464258       0.57935575       0.97887327
O        0.34365692      -0.91071948      -0.62047641
H        0.50496499      -1.18187754       2.63893372
H        1.30457173      -2.20174599       1.40562907
H       -0.43374976      -2.31754806       1.65359808
13
Properties=species:S:1:pos:R:3 charge=-1 charge_a=0 charge_b=-1 selection_a=1-6 selection_b=7-13 scaling=0.9 benchmark_Eint=-6.425 benchmark_unit=kcal/mol group=CH-Oa pbc="F F F"
H       -0.61691352       1.96055782      -0.35456849
H       -0.99104773       3.26362893      -1.64626650
H       -0.36771851       1.62586321      -3.39082152
H       -0.01670555       0.38335109      -2.03419408
C       -0.66790652       2.25700893      -1.39805267
C       -0.33341139       1.37807554      -2.33404499
C        0.43328230      -1.70263231       1.72785674
C        0.17943288      -0.61795553       0.64321615
O       -0.20255010       0.50082693       1.05951223
O        0.36574940      -0.98924830      -0.53983745
H        0.52705747      -1.26040636       2.71957268
H        1.32666421      -2.28027481       1.48626803
H       -0.41165728      -2.39607689       1.73423704
13
Properties=species:S:1:pos:R:3 charge=-1 charge_a=0 charge_b=-1 selection_a=1-6 selection_b=7-13 scaling=0.95 benchmark_Eint=-7.174 benchmark_unit=kcal/mol group=CH-Oa pbc="F F F"
H       -0.61691352       1.96055782      -0.35456849
H       -0.99104773       3.26362893      -1.64626650
H       -0.36771851       1.62586321      -3.39082152
H       -0.01670555       0.38335109      -2.03419408
C       -0.66790652       2.25700893      -1.39805267
C       -0.33341139       1.37807554      -2.33404499
C        0.45537478      -1.78116114       1.80849570
C        0.20152536      -0.69648435       0.72385511
O       -0.18045761       0.42229810       1.14015119
O        0.38784189      -1.06777713      -0.45919849
H        0.54914996      -1.33893518       2.80021163
H        1.34875669      -2.35880363       1.56690698
H       -0.38956480      -2.47460571       1.81487599
13
Properties=species:S:1:pos:R:3 charge=-1 charge_a=0 charge_b=-1 selection_a=1-6 selection_b=7-13 scaling=1.0 benchmark_Eint=-7.378 benchmark_unit=kcal/mol group=CH-Oa pbc="F F F"
H       -0.61691352       1.96055782      -0.35456849
H       -0.99104773       3.26362893      -1.64626650
H       -0.36771851       1.62586321      -3.39082152
H       -0.01670555       0.38335109      -2.03419408
C       -0.66790652       2.25700893      -1.39805267
C       -0.33341139       1.37807554      -2.33404499
C        0.47746727      -1.85968996       1.88913466
C        0.22361785      -0.77501317       0.80449406
O       -0.15836513       0.34376928       1.22079014
O        0.40993437      -1.14630595      -0.37855954
H        0.57124244      -1.41746400       2.88085059
H        1.37084918      -2.43733245       1.64754594
H       -0.36747231      -2.55313453       1.89551495
13
Properties=species:S:1:pos:R:3 charge=-1 charge_a=0 charge_b=-1 selection_a=1-6 selection_b=7-13 scaling=1.05 benchmark_Eint=-7.248 benchmark_unit=kcal/mol group=CH-Oa pbc="F F F"
H       -0.61691352       1.96055782      -0.35456849
H       -0.99104773       3.26362893      -1.64626650
H       -0.36771851       1.62586321      -3.39082152
H       -0.01670555       0.38335109      -2.03419408
C       -0.66790652       2.25700893      -1.39805267
C       -0.33341139       1.37807554      -2.33404499
C        0.49955975      -1.93821878       1.96977361
C        0.24571033      -0.85354199       0.88513302
O       -0.13627264       0.26524046       1.30142910
O        0.43202685      -1.22483477      -0.29792058
H        0.59333492      -1.49599283       2.96148955
H        1.39294166      -2.51586128       1.72818490
H       -0.34537983      -2.63166335       1.97615391
13
Properties=species:S:1:pos:R:3 charge=-1 charge_a=0 charge_b=-1 selection_a=1-6 selection_b=7-13 scaling=1.1 benchmark_Eint=-6.923 benchmark_unit=kcal/mol group=CH-Oa pbc="F F F"
H       -0.61691352       1.96055782      -0.35456849
H       -0.99104773       3.26362893      -1.64626650
H       -0.36771851       1.62586321      -3.39082152
H       -0.01670555       0.38335109      -2.03419408
C       -0.66790652       2.25700893      -1.39805267
C       -0.33341139       1.37807554      -2.33404499
C        0.52165223      -2.01674760       2.05041257
C        0.26780281      -0.93207081       0.96577198
O       -0.11418016       0.18671164       1.38206806
O        0.45411934      -1.30336359      -0.21728162
H        0.61542741      -1.57452165       3.04212850
H        1.41503414      -2.59439010       1.80882385
H       -0.32328735      -2.71019218       2.05679286
13
Properties=species:S:1:pos:R:3 charge=-1 charge_a=0 charge_b=-1 selection_a=1-6 selection_b=7-13 scaling=1.25 benchmark_Eint=-5.54 benchmark_unit=kcal/mol group=CH-Oa pbc="F F F"
H       -0.61691352       1.96055782      -0.35456849
H       -0.99104773       3.26362893      -1.64626650
H       -0.36771851       1.62586321      -3.39082152
H       -0.01670555       0.38335109      -2.03419408
C       -0.66790652       2.25700893      -1.39805267
C       -0.33341139       1.37807554      -2.33404499
C        0.58792968      -2.25233407       2.29232944
C        0.33408026      -1.16765728       1.20768885
O       -0.04790271      -0.04887483       1.62398493
O        0.52039679      -1.53895006       0.02463525
H        0.68170486      -1.81010811       3.28404537
H        1.48131159      -2.82997657       2.05074072
H       -0.25700990      -2.94577864       2.29870973
13
Properties=species:S:1:pos:R:3 charge=-1 charge_a=0 charge_b=-1 selection_a=1-6 selection_b=7-13 scaling=1.5 benchmark_Eint=-3.501 benchmark_unit=kcal/mol group=CH-Oa pbc="F F F"
H       -0.61691352       1.96055782      -0.35456849
H       -0.99104773       3.26362893      -1.64626650
H       -0.36771851       1.62586321      -3.39082152
H       -0.01670555       0.38335109      -2.03419408
C       -0.66790652       2.25700893      -1.39805267
C       -0.33341139       1.37807554      -2.33404499
C        0.69839210      -2.64497818       2.69552422
C        0.44454268      -1.56030139       1.61088363
O        0.06255970      -0.44151894       2.02717971
O        0.63085920      -1.93159417       0.42783003
H        0.79216727      -2.20275222       3.68724016
H        1.59177401      -3.22262068       2.45393551
H       -0.14654748      -3.33842275       2.70190451
13
Properties=species:S:1:pos:R:3 charge=-1 charge_a=0 charge_b=-1 selection_a=1-6 selection_b=7-13 scaling=2.0 benchmark_Eint=-1.491 benchmark_unit=kcal/mol group=CH-Oa pbc="F F F"
H       -0.61691352       1.96055782      -0.35456849
H       -0.99104773       3.26362893      -1.64626650
H       -0.36771851       1.62586321      -3.39082152
H       -0.01670555       0.38335109      -2.03419408
C       -0.66790652       2.25700893      -1.39805267
C       -0.33341139       1.37807554      -2.33404499
C        0.91931693      -3.43026640       3.50191379
C        0.66546751      -2.34558962       2.41727320
O        0.28348454      -1.22680716       2.83356928
O        0.85178404      -2.71688239       1.23421960
H        1.01309211      -2.98804045       4.49362972
H        1.81269884      -4.00790890       3.26032507
H        0.07437735      -4.12371098       3.50829408
14
Properties=species:S:1:pos:R:3 charge=-1 charge_a=0 charge_b=-1 selection_a=1-12 selection_b=13-14 scaling=0.8 benchmark_Eint=-4.161 benchmark_unit=kcal/mol group=CH-Na pbc="F F F"
C       -0.29188188       0.52555792       0.25232829
H        0.19574929       1.48659598       0.36699802
C        0.45049722      -0.51225177      -0.30225663
H        1.47400355      -0.30400189      -0.58896833
C       -0.12625460      -1.76572545      -0.47194303
H        0.45203946      -2.57271790      -0.90353253
C       -1.44656337      -1.98880258      -0.08880788
H       -1.89413754      -2.96559981      -0.22167636
C       -2.18958821      -0.95260759       0.46552825
H       -3.21622394      -1.12246717       0.76449469
C       -1.60990995       0.30248402       0.63469329
H       -2.18980972       1.10823951       1.06647270
C        2.58840537       1.56516945      -0.42233046
N        1.85306563       2.34016012       0.05324140
14
Properties=species:S:1:pos:R:3 charge=-1 charge_a=0 charge_b=-1 selection_a=1-12 selection_b=13-14 scaling=0.85 benchmark_Eint=-6.489 benchmark_unit=kcal/mol group=CH-Na pbc="F F F"
C       -0.29188188       0.52555792       0.25232829
H        0.19574929       1.48659598       0.36699802
C        0.45049722      -0.51225177      -0.30225663
H        1.47400355      -0.30400189      -0.58896833
C       -0.12625460      -1.76572545      -0.47194303
H        0.45203946      -2.57271790      -0.90353253
C       -1.44656337      -1.98880258      -0.08880788
H       -1.89413754      -2.96559981      -0.22167636
C       -2.18958821      -0.95260759       0.46552825
H       -3.21622394      -1.12246717       0.76449469
C       -1.60990995       0.30248402       0.63469329
H       -2.18980972       1.10823951       1.06647270
C        2.69198764       1.61851721      -0.44194025
N        1.95664790       2.39350788       0.03363162
14
Properties=species:S:1:pos:R:3 charge=-1 charge_a=0 charge_b=-1 selection_a=1-12 selection_b=13-14 scaling=0.9 benchmark_Eint=-7.801 benchmark_unit=kcal/mol group=CH-Na pbc="F F F"
C       -0.29188188       0.52555792       0.25232829
H        0.19574929       1.48659598       0.36699802
C        0.45049722      -0.51225177      -0.30225663
H        1.47400355      -0.30400189      -0.58896833
C       -0.12625460      -1.76572545      -0.47194303
H        0.45203946      -2.57271790      -0.90353253
C       -1.44656337      -1.98880258      -0.08880788
H       -1.89413754      -2.96559981      -0.22167636
C       -2.18958821      -0.95260759       0.46552825
H       -3.21622394      -1.12246717       0.76449469
C       -1.60990995       0.30248402       0.63469329
H       -2.18980972       1.10823951       1.06647270
C        2.79556991       1.67186497      -0.46155004
N        2.06023017       2.44685564       0.01402183
14
Properties=species:S:1:pos:R:3 charge=-1 charge_a=0 charge_b=-1 selection_a=1-12 selection_b=13-14 scaling=0.95 benchmark_Eint=-8.424 benchmark_unit=kcal/mol group=CH-Na pbc="F F F"
C       -0.29188188       0.52555792       0.25232829
H        0.19574929       1.48659598       0.36699802
C        0.45049722      -0.51225177      -0.30225663
H        1.47400355      -0.30400189      -0.58896833
C       -0.12625460      -1.76572545      -0.47194303
H        0.45203946      -2.57271790      -0.90353253
C       -1.44656337      -1.98880258      -0.08880788
H       -1.89413754      -2.96559981      -0.22167636
C       -2.18958821      -0.95260759       0.46552825
H       -3.21622394      -1.12246717       0.76449469
C       -1.60990995       0.30248402       0.63469329
H       -2.18980972       1.10823951       1.06647270
C        2.89915218       1.72521273      -0.48115982
N        2.16381244       2.50020340      -0.00558796
14
Properties=species:S:1:pos:R:3 charge=-1 charge_a=0 charge_b=-1 selection_a=1-12 selection_b=13-14 scaling=1.0 benchmark_Eint=-8.589 benchmark_unit=kcal/mol group=CH-Na pbc="F F F"
C       -0.29188188       0.52555792       0.25232829
H        0.19574929       1.48659598       0.36699802
C        0.45049722      -0.51225177      -0.30225663
H        1.47400355      -0.30400189      -0.58896833
C       -0.12625460      -1.76572545      -0.47194303
H        0.45203946      -2.57271790      -0.90353253
C       -1.44656337      -1.98880258      -0.08880788
H       -1.89413754      -2.96559981      -0.22167636
C       -2.18958821      -0.95260759       0.46552825
H       -3.21622394      -1.12246717       0.76449469
C       -1.60990995       0.30248402       0.63469329
H       -2.18980972       1.10823951       1.06647270
C        3.00273445       1.77856049      -0.50076961
N        2.26739471       2.55355116      -0.02519775
14
Properties=species:S:1:pos:R:3 charge=-1 charge_a=0 charge_b=-1 selection_a=1-12 selection_b=13-14 scaling=1.05 benchmark_Eint=-8.46 benchmark_unit=kcal/mol group=CH-Na pbc="F F F"
C       -0.29188188       0.52555792       0.25232829
H        0.19574929       1.48659598       0.36699802
C        0.45049722      -0.51225177      -0.30225663
H        1.47400355      -0.30400189      -0.58896833
C       -0.12625460      -1.76572545      -0.47194303
H        0.45203946      -2.57271790      -0.90353253
C       -1.44656337      -1.98880258      -0.08880788
H       -1.89413754      -2.96559981      -0.22167636
C       -2.18958821      -0.95260759       0.46552825
H       -3.21622394      -1.12246717       0.76449469
C       -1.60990995       0.30248402       0.63469329
H       -2.18980972       1.10823951       1.06647270
C        3.10631673       1.83190825      -0.52037940
N        2.37097698       2.60689891      -0.04480754
14
Properties=species:S:1:pos:R:3 charge=-1 charge_a=0 charge_b=-1 selection_a=1-12 selection_b=13-14 scaling=1.1 benchmark_Eint=-8.149 benchmark_unit=kcal/mol group=CH-Na pbc="F F F"
C       -0.29188188       0.52555792       0.25232829
H        0.19574929       1.48659598       0.36699802
C        0.45049722      -0.51225177      -0.30225663
H        1.47400355      -0.30400189      -0.58896833
C       -0.12625460      -1.76572545      -0.47194303
H        0.45203946      -2.57271790      -0.90353253
C       -1.44656337      -1.98880258      -0.08880788
H       -1.89413754      -2.96559981      -0.22167636
C       -2.18958821      -0.95260759       0.46552825
H       -3.21622394      -1.12246717       0.76449469
C       -1.60990995       0.30248402       0.63469329
H       -2.18980972       1.10823951       1.06647270
C        3.20989900       1.88525601      -0.53998919
N        2.47455925       2.66024667      -0.06441732
14
Properties=species:S:1:pos:R:3 charge=-1 charge_a=0 charge_b=-1 selection_a=1-12 selection_b=13-14 scaling=1.25 benchmark_Eint=-6.777 benchmark_unit=kcal/mol group=CH-Na pbc="F F F"
C       -0.29188188       0.52555792       0.25232829
H        0.19574929       1.48659598       0.36699802
C        0.45049722      -0.51225177      -0.30225663
H        1.47400355      -0.30400189      -0.58896833
C       -0.12625460      -1.76572545      -0.47194303
H        0.45203946      -2.57271790      -0.90353253
C       -1.44656337      -1.98880258      -0.08880788
H       -1.89413754      -2.96559981      -0.22167636
C       -2.18958821      -0.95260759       0.46552825
H       -3.21622394      -1.12246717       0.76449469
C       -1.60990995       0.30248402       0.63469329
H       -2.18980972       1.10823951       1.06647270
C        3.52064581       2.04529928      -0.59881855
N        2.78530606       2.82028995      -0.12324669
14
Properties=species:S:1:pos:R:3 charge=-1 charge_a=0 charge_b=-1 selection_a=1-12 selection_b=13-14 scaling=1.5 benchmark_Eint=-4.59 benchmark_unit=kcal/mol group=CH-Na pbc="F F F"
C       -0.29188188       0.52555792       0.25232829
H        0.19574929       1.48659598       0.36699802
C        0.45049722      -0.51225177      -0.30225663
H        1.47400355      -0.30400189      -0.58896833
C       -0.12625460      -1.76572545      -0.47194303
H        0.45203946      -2.57271790      -0.90353253
C       -1.44656337      -1.98880258      -0.08880788
H       -1.89413754      -2.96559981      -0.22167636
C       -2.18958821      -0.95260759       0.46552825
H       -3.21622394      -1.12246717       0.76449469
C       -1.60990995       0.30248402       0.63469329
H       -2.18980972       1.10823951       1.06647270
C        4.03855716       2.31203808      -0.69686749
N        3.30321742       3.08702874      -0.22129563
14
Properties=species:S:1:pos:R:3 charge=-1 charge_a=0 charge_b=-1 selection_a=1-12 selection_b=13-14 scaling=2.0 benchmark_Eint=-2.181 benchmark_unit=kcal/mol group=CH-Na pbc="F F F"
C       -0.29188188       0.52555792       0.25232829
H        0.19574929       1.48659598       0.36699802
C        0.45049722      -0.51225177      -0.30225663
H        1.47400355      -0.30400189      -0.58896833
C       -0.12625460      -1.76572545      -0.47194303
H        0.45203946      -2.57271790      -0.90353253
C       -1.44656337      -1.98880258      -0.08880788
H       -1.89413754      -2.96559981      -0.22167636
C       -2.18958821      -0.95260759       0.46552825
H       -3.21622394      -1.12246717       0.76449469
C       -1.60990995       0.30248402       0.63469329
H       -2.18980972       1.10823951       1.06647270
C        5.07437987       2.84551566      -0.89296538
N        4.33904013       3.62050633      -0.41739351
8
Properties=species:S:1:pos:R:3 charge=-1 charge_a=0 charge_b=-1 selection_a=1-6 selection_b=7-8 scaling=0.8 benchmark_Eint=-1.078 benchmark_unit=kcal/mol group=CH-Na pbc="F F F"
H       -0.08308165       0.59335585      -0.06387470
H       -0.37743943       2.41700785       0.10381773
H       -0.20307882       2.71009458      -2.32500299
H        0.09125407       0.90067151      -2.51652249
C       -0.18878273       1.56641098      -0.54330523
C       -0.09661014       1.73807595      -1.85578094
C        0.15631656      -1.90349156       1.45231479
N        0.07733407      -0.95726524       0.76986432
8
Properties=species:S:1:pos:R:3 charge=-1 charge_a=0 charge_b=-1 selection_a=1-6 selection_b=7-8 scaling=0.85 benchmark_Eint=-3.07 benchmark_unit=kcal/mol group=CH-Na pbc="F F F"
H       -0.08308165       0.59335585      -0.06387470
H       -0.37743943       2.41700785       0.10381773
H       -0.20307882       2.71009458      -2.32500299
H        0.09125407       0.90067151      -2.51652249
C       -0.18878273       1.56641098      -0.54330523
C       -0.09661014       1.73807595      -1.85578094
C        0.16634255      -2.00040538       1.50442348
N        0.08736005      -1.05417906       0.82197301
8
Properties=species:S:1:pos:R:3 charge=-1 charge_a=0 charge_b=-1 selection_a=1-6 selection_b=7-8 scaling=0.9 benchmark_Eint=-4.235 benchmark_unit=kcal/mol group=CH-Na pbc="F F F"
H       -0.08308165       0.59335585      -0.06387470
H       -0.37743943       2.41700785       0.10381773
H       -0.20307882       2.71009458      -2.32500299
H        0.09125407       0.90067151      -2.51652249
C       -0.18878273       1.56641098      -0.54330523
C       -0.09661014       1.73807595      -1.85578094
C        0.17636853      -2.09731919       1.55653217
N        0.09738603      -1.15109288       0.87408170
8
Properties=species:S:1:pos:R:3 charge=-1 charge_a=0 charge_b=-1 selection_a=1-6 selection_b=7-8 scaling=0.95 benchmark_Eint=-4.84 benchmark_unit=kcal/mol group=CH-Na pbc="F F F"
H       -0.08308165       0.59335585      -0.06387470
H       -0.37743943       2.41700785       0.10381773
H       -0.20307882       2.71009458      -2.32500299
H        0.09125407       0.90067151      -2.51652249
C       -0.18878273       1.56641098      -0.54330523
C       -0.09661014       1.73807595      -1.85578094
C        0.18639451      -2.19423301       1.60864086
N        0.10741201      -1.24800670       0.92619039
8
Properties=species:S:1:pos:R:3 charge=-1 charge_a=0 charge_b=-1 selection_a=1-6 selection_b=7-8 scaling=1.0 benchmark_Eint=-5.073 benchmark_unit=kcal/mol group=CH-Na pbc="F F F"
H       -0.08308165       0.59335585      -0.06387470
H       -0.37743943       2.41700785       0.10381773
H       -0.20307882       2.71009458      -2.32500299
H        0.09125407       0.90067151      -2.51652249
C       -0.18878273       1.56641098      -0.54330523
C       -0.09661014       1.73807595      -1.85578094
C        0.19642049      -2.29114683       1.66074955
N        0.11743800      -1.34492052       0.97829908
8
Properties=species:S:1:pos:R:3 charge=-1 charge_a=0 charge_b=-1 selection_a=1-6 selection_b=7-8 scaling=1.05 benchmark_Eint=-5.065 benchmark_unit=kcal/mol group=CH-Na pbc="F F F"
H       -0.08308165       0.59335585      -0.06387470
H       -0.37743943       2.41700785       0.10381773
H       -0.20307882       2.71009458      -2.32500299
H        0.09125407       0.90067151      -2.51652249
C       -0.18878273       1.56641098      -0.54330523
C       -0.09661014       1.73807595      -1.85578094
C        0.20644647      -2.38806065       1.71285824
N        0.12746398      -1.44183434       1.03040777
8
Properties=species:S:1:pos:R:3 charge=-1 charge_a=0 charge_b=-1 selection_a=1-6 selection_b=7-8 scaling=1.1 benchmark_Eint=-4.908 benchmark_unit=kcal/mol group=CH-Na pbc="F F F"
H       -0.08308165       0.59335585      -0.06387470
H       -0.37743943       2.41700785       0.10381773
H       -0.20307882       2.71009458      -2.32500299
H        0.09125407       0.90067151      -2.51652249
C       -0.18878273       1.56641098      -0.54330523
C       -0.09661014       1.73807595      -1.85578094
C        0.21647246      -2.48497447       1.76496693
N        0.13748996      -1.53874815       1.08251646
8
Properties=species:S:1:pos:R:3 charge=-1 charge_a=0 charge_b=-1 selection_a=1-6 selection_b=7-8 scaling=1.25 benchmark_Eint=-4.06 benchmark_unit=kcal/mol group=CH-Na pbc="F F F"
H       -0.08308165       0.59335585      -0.06387470
H       -0.37743943       2.41700785       0.10381773
H       -0.20307882       2.71009458      -2.32500299
H        0.09125407       0.90067151      -2.51652249
C       -0.18878273       1.56641098      -0.54330523
C       -0.09661014       1.73807595      -1.85578094
C        0.24655040      -2.77571592       1.92129299
N        0.16756791      -1.82948961       1.23884253
8
Properties=species:S:1:pos:R:3 charge=-1 charge_a=0 charge_b=-1 selection_a=1-6 selection_b=7-8 scaling=1.5 benchmark_Eint=-2.654 benchmark_unit=kcal/mol group=CH-Na pbc="F F F"
H       -0.08308165       0.59335585      -0.06387470
H       -0.37743943       2.41700785       0.10381773
H       -0.20307882       2.71009458      -2.32500299
H        0.09125407       0.90067151      -2.51652249
C       -0.18878273       1.56641098      -0.54330523
C       -0.09661014       1.73807595      -1.85578094
C        0.29668031      -3.26028501       2.18183644
N        0.21769782      -2.31405870       1.49938597
8
Properties=species:S:1:pos:R:3 charge=-1 charge_a=0 charge_b=-1 selection_a=1-6 selection_b=7-8 scaling=2.0 benchmark_Eint=-1.171 benchmark_unit=kcal/mol group=CH-Na pbc="F F F"
H       -0.08308165       0.59335585      -0.06387470
H       -0.37743943       2.41700785       0.10381773
H       -0.20307882       2.71009458      -2.32500299
H        0.09125407       0.90067151      -2.51652249
C       -0.18878273       1.56641098      -0.54330523
C       -0.09661014       1.73807595      -1.85578094
C        0.39694013      -4.22942319       2.70292333
N        0.31795764      -3.28319688       2.02047286
6
Properties=species:S:1:pos:R:3 charge=-1 charge_a=0 charge_b=-1 selection_a=1-4 selection_b=5-6 scaling=0.8 benchmark_Eint=-5.386 benchmark_unit=kcal/mol group=CH-Na pbc="F F F"
C       -0.00000306       0.00001204       1.48319906
H       -0.00000306       0.00001204       0.38619155
C        0.00000985      -0.00008902       2.68523229
H        0.00002576      -0.00019454       3.74534355
C       -0.00001932       0.00014664      -2.32709752
N        0.00000524      -0.00002798      -1.15828672
6
Properties=species:S:1:pos:R:3 charge=-1 charge_a=0 charge_b=-1 selection_a=1-4 selection_b=5-6 scaling=0.85 benchmark_Eint=-8.243 benchmark_unit=kcal/mol group=CH-Na pbc="F F F"
C       -0.00000306       0.00001204       1.48319906
H       -0.00000306       0.00001204       0.38619155
C        0.00000985      -0.00008902       2.68523229
H        0.00002576      -0.00019454       3.74534355
C       -0.00001880       0.00014414      -2.42362741
N        0.00000576      -0.00003049      -1.25481662
6
Properties=species:S:1:pos:R:3 charge=-1 charge_a=0 charge_b=-1 selection_a=1-4 selection_b=5-6 scaling=0.9 benchmark_Eint=-9.964 benchmark_unit=kcal/mol group=CH-Na pbc="F F F"
C       -0.00000306       0.00001204       1.48319906
H       -0.00000306       0.00001204       0.38619155
C        0.00000985      -0.00008902       2.68523229
H        0.00002576      -0.00019454       3.74534355
C       -0.00001828       0.00014164      -2.52015731
N        0.00000628      -0.00003299      -1.35134651
6
Properties=species:S:1:pos:R:3 charge=-1 charge_a=0 charge_b=-1 selection_a=1-4 selection_b=5-6 scaling=0.95 benchmark_Eint=-10.887 benchmark_unit=kcal/mol group=CH-Na pbc="F F F"
C       -0.00000306       0.00001204       1.48319906
H       -0.00000306       0.00001204       0.38619155
C        0.00000985      -0.00008902       2.68523229
H        0.00002576      -0.00019454       3.74534355
C       -0.00001776       0.00013914      -2.61668720
N        0.00000680      -0.00003549      -1.44787640
6
Properties=species:S:1:pos:R:3 charge=-1 charge_a=0 charge_b=-1 selection_a=1-4 selection_b=5-6 scaling=1.0 benchmark_Eint=-11.258 benchmark_unit=kcal/mol group=CH-Na pbc="F F F"
C       -0.00000306       0.00001204       1.48319906
H       -0.00000306       0.00001204       0.38619155
C        0.00000985      -0.00008902       2.68523229
H        0.00002576      -0.00019454       3.74534355
C       -0.00001724       0.00013663      -2.71321709
N        0.00000732      -0.00003799      -1.54440629
6
Properties=species:S:1:pos:R:3 charge=-1 charge_a=0 charge_b=-1 selection_a=1-4 selection_b=5-6 scaling=1.05 benchmark_Eint=-11.252 benchmark_unit=kcal/mol group=CH-Na pbc="F F F"
C       -0.00000306       0.00001204       1.48319906
H       -0.00000306       0.00001204       0.38619155
C        0.00000985      -0.00008902       2.68523229
H        0.00002576      -0.00019454       3.74534355
C       -0.00001672       0.00013413      -2.80974698
N        0.00000784      -0.00004049      -1.64093619
6
Properties=species:S:1:pos:R:3 charge=-1 charge_a=0 charge_b=-1 selection_a=1-4 selection_b=5-6 scaling=1.1 benchmark_Eint=-10.996 benchmark_unit=kcal/mol group=CH-Na pbc="F F F"
C       -0.00000306       0.00001204       1.48319906
H       -0.00000306       0.00001204       0.38619155
C        0.00000985      -0.00008902       2.68523229
H        0.00002576      -0.00019454       3.74534355
C       -0.00001620       0.00013163      -2.90627688
N        0.00000836      -0.00004299      -1.73746608
6
Properties=species:S:1:pos:R:3 charge=-1 charge_a=0 charge_b=-1 selection_a=1-4 selection_b=5-6 scaling=1.25 benchmark_Eint=-9.519 benchmark_unit=kcal/mol group=CH-Na pbc="F F F"
C       -0.00000306       0.00001204       1.48319906
H       -0.00000306       0.00001204       0.38619155
C        0.00000985      -0.00008902       2.68523229
H        0.00002576      -0.00019454       3.74534355
C       -0.00001465       0.00012413      -3.19586655
N        0.00000991      -0.00005050      -2.02705576
6
Properties=species:S:1:pos:R:3 charge=-1 charge_a=0 charge_b=-1 selection_a=1-4 selection_b=5-6 scaling=1.5 benchmark_Eint=-6.796 benchmark_unit=kcal/mol group=CH-Na pbc="F F F"
C       -0.00000306       0.00001204       1.48319906
H       -0.00000306       0.00001204       0.38619155
C        0.00000985      -0.00008902       2.68523229
H        0.00002576      -0.00019454       3.74534355
C       -0.00001205       0.00011162      -3.67851601
N        0.00001251      -0.00006301      -2.50970522
6
Properties=species:S:1:pos:R:3 charge=-1 charge_a=0 charge_b=-1 selection_a=1-4 selection_b=5-6 scaling=2.0 benchmark_Eint=-3.459 benchmark_unit=kcal/mol group=CH-Na pbc="F F F"
C       -0.00000306       0.00001204       1.48319906
H       -0.00000306       0.00001204       0.38619155
C        0.00000985      -0.00008902       2.68523229
H        0.00002576      -0.00019454       3.74534355
C       -0.00000687       0.00008660      -4.64381494
N        0.00001770      -0.00008803      -3.47500414
7
Properties=species:S:1:pos:R:3 charge=-1 charge_a=0 charge_b=-1 selection_a=1-5 selection_b=6-7 scaling=0.8 benchmark_Eint=0.412 benchmark_unit=kcal/mol group=CH-Ca pbc="F F F"
C       -1.31905872       1.44598626      -1.77950134
H       -0.77404000       0.85082959      -1.04277129
H       -0.61604351       2.00377826      -2.39849757
H       -1.98162367       2.14762701      -1.27232458
H       -1.91387788       0.79173503      -2.41719081
C        0.24440452      -0.26670959       0.33217119
N        0.82854116      -0.90878363       1.11520956
7
Properties=species:S:1:pos:R:3 charge=-1 charge_a=0 charge_b=-1 selection_a=1-5 selection_b=6-7 scaling=0.85 benchmark_Eint=-1.073 benchmark_unit=kcal/mol group=CH-Ca pbc="F F F"
C       -1.31905872       1.44598626      -1.77950134
H       -0.77404000       0.85082959      -1.04277129
H       -0.61604351       2.00377826      -2.39849757
H       -1.98162367       2.14762701      -1.27232458
H       -1.91387788       0.79173503      -2.41719081
C        0.30805731      -0.33655579       0.41810509
N        0.89219394      -0.97862982       1.20114346
7
Properties=species:S:1:pos:R:3 charge=-1 charge_a=0 charge_b=-1 selection_a=1-5 selection_b=6-7 scaling=0.9 benchmark_Eint=-1.943 benchmark_unit=kcal/mol group=CH-Ca pbc="F F F"
C       -1.31905872       1.44598626      -1.77950134
H       -0.77404000       0.85082959      -1.04277129
H       -0.61604351       2.00377826      -2.39849757
H       -1.98162367       2.14762701      -1.27232458
H       -1.91387788       0.79173503      -2.41719081
C        0.37171009      -0.40640199       0.50403900
N        0.95584673      -1.04847602       1.28707737
7
Properties=species:S:1:pos:R:3 charge=-1 charge_a=0 charge_b=-1 selection_a=1-5 selection_b=6-7 scaling=0.95 benchmark_Eint=-2.402 benchmark_unit=kcal/mol group=CH-Ca pbc="F F F"
C       -1.31905872       1.44598626      -1.77950134
H       -0.77404000       0.85082959      -1.04277129
H       -0.61604351       2.00377826      -2.39849757
H       -1.98162367       2.14762701      -1.27232458
H       -1.91387788       0.79173503      -2.41719081
C        0.43536287      -0.47624819       0.58997290
N        1.01949951      -1.11832222       1.37301127
7
Properties=species:S:1:pos:R:3 charge=-1 charge_a=0 charge_b=-1 selection_a=1-5 selection_b=6-7 scaling=1.0 benchmark_Eint=-2.593 benchmark_unit=kcal/mol group=CH-Ca pbc="F F F"
C       -1.31905872       1.44598626      -1.77950134
H       -0.77404000       0.85082959      -1.04277129
H       -0.61604351       2.00377826      -2.39849757
H       -1.98162367       2.14762701      -1.27232458
H       -1.91387788       0.79173503      -2.41719081
C        0.49901565      -0.54609439       0.67590680
N        1.08315229      -1.18816842       1.45894518
7
Properties=species:S:1:pos:R:3 charge=-1 charge_a=0 charge_b=-1 selection_a=1-5 selection_b=6-7 scaling=1.05 benchmark_Eint=-2.614 benchmark_unit=kcal/mol group=CH-Ca pbc="F F F"
C       -1.31905872       1.44598626      -1.77950134
H       -0.77404000       0.85082959      -1.04277129
H       -0.61604351       2.00377826      -2.39849757
H       -1.98162367       2.14762701      -1.27232458
H       -1.91387788       0.79173503      -2.41719081
C        0.56266844      -0.61594059       0.76184071
N        1.14680508      -1.25801462       1.54487908
7
Properties=species:S:1:pos:R:3 charge=-1 charge_a=0 charge_b=-1 selection_a=1-5 selection_b=6-7 scaling=1.1 benchmark_Eint=-2.529 benchmark_unit=kcal/mol group=CH-Ca pbc="F F F"
C       -1.31905872       1.44598626      -1.77950134
H       -0.77404000       0.85082959      -1.04277129
H       -0.61604351       2.00377826      -2.39849757
H       -1.98162367       2.14762701      -1.27232458
H       -1.91387788       0.79173503      -2.41719081
C        0.62632122      -0.68578679       0.84777461
N        1.21045786      -1.32786082       1.63081299
7
Properties=species:S:1:pos:R:3 charge=-1 charge_a=0 charge_b=-1 selection_a=1-5 selection_b=6-7 scaling=1.25 benchmark_Eint=-2.027 benchmark_unit=kcal/mol group=CH-Ca pbc="F F F"
C       -1.31905872       1.44598626      -1.77950134
H       -0.77404000       0.85082959      -1.04277129
H       -0.61604351       2.00377826      -2.39849757
H       -1.98162367       2.14762701      -1.27232458
H       -1.91387788       0.79173503      -2.41719081
C        0.81727957      -0.89532538       1.10557633
N        1.40141621      -1.53739942       1.88861470
7
Properties=species:S:1:pos:R:3 charge=-1 charge_a=0 charge_b=-1 selection_a=1-5 selection_b=6-7 scaling=1.5 benchmark_Eint=-1.213 benchmark_unit=kcal/mol group=CH-Ca pbc="F F F"
C       -1.31905872       1.44598626      -1.77950134
H       -0.77404000       0.85082959      -1.04277129
H       -0.61604351       2.00377826      -2.39849757
H       -1.98162367       2.14762701      -1.27232458
H       -1.91387788       0.79173503      -2.41719081
C        1.13554348      -1.24455638       1.53524585
N        1.71968012      -1.88663041       2.31828422
7
Properties=species:S:1:pos:R:3 charge=-1 charge_a=0 charge_b=-1 selection_a=1-5 selection_b=6-7 scaling=2.0 benchmark_Eint=-0.438 benchmark_unit=kcal/mol group=CH-Ca pbc="F F F"
C       -1.31905872       1.44598626      -1.77950134
H       -0.77404000       0.85082959      -1.04277129
H       -0.61604351       2.00377826      -2.39849757
H       -1.98162367       2.14762701      -1.27232458
H       -1.91387788       0.79173503      -2.41719081
C        1.77207130      -1.94301837       2.39458490
N        2.35620794      -2.58509240       3.17762327
